29
Energy -459.1959681055 Ha
O    0.0000000000  0.0000000000  2.5585880000
C   -2.6807970000 -0.6751880000  0.2639800000
C   -1.9068840000 -0.7890630000 -1.0689120000
C   -0.6020980000  0.0644660000 -1.0710680000
C    0.3669090000 -0.2821830000  0.1307020000
C   -0.4332870000 -0.4043980000  1.4787480000
C   -1.8084940000 -1.0922920000  1.4704180000
C    0.0440650000 -0.0965640000 -2.4669440000
C    1.6773750000  0.5915590000  0.1787610000
C    2.7727190000  0.0000000000  1.0893180000
C    1.4542890000  2.0725160000  0.5487190000
H   -3.0350120000  0.3663170000  0.4003800000
H   -3.5991440000 -1.2927230000  0.2277890000
H   -1.6691280000 -1.8528630000 -1.2685190000
H   -2.5723820000 -0.4776570000 -1.8976460000
H   -0.9073440000  1.1252840000 -0.9659730000
H    0.7066120000 -1.3172600000 -0.0579400000
H   -2.3339320000 -0.8725690000  2.4180130000
H   -1.6416520000 -2.1842710000  1.4665770000
H   -0.6747810000  0.1023440000 -3.2842090000
H    0.4443990000 -1.1155610000 -2.6255540000
H    0.8769100000  0.6113650000 -2.6257510000
H    2.1236650000  0.5829830000 -0.8333140000
H    2.4866510000  0.0158260000  2.1577050000
H    3.7226330000  0.5601850000  1.0060260000
H    2.9998400000 -1.0503480000  0.8302700000
H    2.3933510000  2.6547650000  0.5034190000
H    1.0525370000  2.1883120000  1.5730560000
H    0.7429790000  2.5670190000 -0.1366400000
29
Energy -459.1990108550 Ha
O    0.1138084213  0.1003402793  2.5237092625
C   -2.6571485854 -0.6605152647  0.2869438675
C   -1.8897607923 -0.7785104357 -1.0516686000
C   -0.5898486345  0.0772431453 -1.0748401619
C    0.3710986688 -0.3114608258  0.0940766736
C   -0.3842470799 -0.3473271965  1.4595104502
C   -1.7628832677 -1.0727342822  1.4779727137
C    0.0868232221 -0.0657949809 -2.4647766797
C    1.6526248636  0.5639493099  0.1477395164
C    2.7160041015 -0.0447536520  1.1029321580
C    1.3721718033  2.0435237854  0.5240594927
H   -2.9960705331  0.3731543257  0.4242321939
H   -3.5592727694 -1.2830859987  0.2621844976
H   -1.6433812589 -1.8303433278 -1.2411019755
H   -2.5444880745 -0.4607808261 -1.8697361572
H   -0.8835037387  1.1279878061 -0.9501059923
H    0.6985914054 -1.3489633925 -0.0918078043
H   -2.2606733926 -0.8497313818  2.4275473306
H   -1.5892445502 -2.1584787056  1.4570092036
H   -0.6274281763  0.1446501735 -3.2648788768
H    0.4693959046 -1.0786759821 -2.6196376504
H    0.9212431853  0.6292973716 -2.5920144895
H    2.0945842966  0.5559139455 -0.8566185416
H    2.3833781528 -0.0290028772  2.1441548308
H    3.6509716239  0.5187301610  1.0454747013
H    2.9403585472 -1.0833738994  0.8400383645
H    2.2942776416  2.6296731379  0.4975825910
H    0.9556362067  2.1276319941  1.5312765106
H    0.6669818087  2.5114385938 -0.1692584293
29
Energy -459.2013704420 Ha
O    0.0364143487  0.2148276089  2.5062366348
C   -2.6615829499 -0.6778869448  0.2805123366
C   -1.8860885504 -0.7984368768 -1.0527212431
C   -0.6032995338  0.0813295967 -1.0734058697
C    0.3599043160 -0.3086337196  0.0996959033
C   -0.4059528804 -0.3240548596  1.4656090368
C   -1.7678939808 -1.0773350795  1.4792732418
C    0.0800638062 -0.0486322459 -2.4627181331
C    1.6625855461  0.5651496212  0.1520469653
C    2.7283692057 -0.0610919242  1.0958072308
C    1.4006073996  2.0482704945  0.5343820592
H   -3.0078632234  0.3565777915  0.4095853392
H   -3.5541141740 -1.3168035973  0.2536353676
H   -1.6137355820 -1.8484697962 -1.2256099790
H   -2.5392564116 -0.4939833462 -1.8809847469
H   -0.9143705267  1.1272769752 -0.9441978939
H    0.6787647340 -1.3475653429 -0.0813781534
H   -2.2754288958 -0.8601416031  2.4283017623
H   -1.5715885191 -2.1588412848  1.4517586696
H   -0.6475083533  0.1454609470 -3.2589824931
H    0.4799553520 -1.0584010418 -2.6094148080
H    0.9004634042  0.6643275046 -2.5845782766
H    2.0957210412  0.5565085898 -0.8562937722
H    2.3960588793 -0.0438465820  2.1372998761
H    3.6680444840  0.4988395833  1.0279521352
H    2.9337114145 -1.1010176057  0.8174828225
H    2.3372171899  2.6158322320  0.5014347318
H    0.9932735478  2.1276468728  1.5466515002
H    0.6975279120  2.5230950330 -0.1573812442
29
Energy -459.2022159659 Ha
O   -0.0152882438  0.2740774892  2.4947182289
C   -2.6571677201 -0.7194513968  0.2950091986
C   -1.8890432355 -0.7988935208 -1.0490332675
C   -0.6241376919  0.1110550051 -1.0603435276
C    0.3473283034 -0.3008014112  0.1037182165
C   -0.4278958118 -0.2895360383  1.4637939101
C   -1.7368317126 -1.1231767366  1.4750019466
C    0.0507976856  0.0271526304 -2.4582715504
C    1.6823256526  0.5377923424  0.1540814854
C    2.6876797635 -0.0730595459  1.1706340947
C    1.4654159444  2.0496642911  0.4401440963
H   -3.0245634662  0.3062929256  0.4479227410
H   -3.5304874251 -1.3872182278  0.2633400495
H   -1.5865579445 -1.8398997353 -1.2358157629
H   -2.5535296944 -0.4937811804 -1.8710035303
H   -0.9542727811  1.1487365727 -0.9001836702
H    0.6369863714 -1.3465783277 -0.0776629612
H   -2.2439320585 -0.9677531798  2.4383834243
H   -1.4803578581 -2.1895227914  1.3928453055
H   -0.6986581159  0.2124204769 -3.2393643731
H    0.4764151626 -0.9719582757 -2.6201211240
H    0.8483236161  0.7692751723 -2.5688639412
H    2.1473898515  0.4567827762 -0.8383705356
H    2.3065339208  0.0156728654  2.1947652676
H    3.6481147076  0.4551743852  1.1072154897
H    2.8598970334 -1.1336349677  0.9472875203
H    2.4310378123  2.5709832500  0.4023105421
H    1.0313337855  2.1975497913  1.4347910872
H    0.8031431487  2.5026363614 -0.3069293602
29
Energy -459.2026101042 Ha
O   -0.0571780720  0.3522428875  2.4701022562
C   -2.6511864628 -0.7345900430  0.3003537496
C   -1.8858167234 -0.8013580498 -1.0454647728
C   -0.6263330360  0.1176902770 -1.0516924177
C    0.3485270973 -0.3022501503  0.1044103034
C   -0.4242322959 -0.2871517525  1.4653046332
C   -1.7249775660 -1.1360149333  1.4773389793
C    0.0457813291  0.0595656553 -2.4524668696
C    1.6851917872  0.5211415465  0.1501043311
C    2.6744468290 -0.0821024930  1.1870973998
C    1.4770849408  2.0386162390  0.4105279333
H   -3.0238816126  0.2871966002  0.4585105664
H   -3.5201650429 -1.4067581041  0.2676755965
H   -1.5760760594 -1.8382021856 -1.2379837904
H   -2.5535721438 -0.4974716585 -1.8632784629
H   -0.9625931743  1.1504297962 -0.8749369409
H    0.6296009668 -1.3509076232 -0.0800651721
H   -2.2328700861 -0.9934172648  2.4406335426
H   -1.4566630271 -2.1982712626  1.3861043368
H   -0.7060897312  0.2460956390 -3.2288236175
H    0.4829298562 -0.9310718004 -2.6275425354
H    0.8339691698  0.8129238636 -2.5532820807
H    2.1568134255  0.4183797618 -0.8380368849
H    2.2832309805  0.0272477971  2.2047221599
H    3.6391470209  0.4355033637  1.1258727967
H    2.8388974531 -1.1469419886  0.9829171083
H    2.4461047262  2.5508917284  0.3750157364
H    1.0329342299  2.2047703852  1.3978016679
H    0.8269742211  2.4838147692 -0.3509205525
29
Energy -459.2019880698 Ha
O   -0.1009911127  0.4280675982  2.4513289618
C   -2.6506359170 -0.7574506122  0.3017797304
C   -1.8831606936 -0.8057378677 -1.0442630666
C   -0.6312437537  0.1229848191 -1.0430999305
C    0.3419979949 -0.2948463803  0.1101333693
C   -0.4399372818 -0.2556789336  1.4623744749
C   -1.7178412709 -1.1399539565  1.4798364141
C    0.0457395196  0.0848517928 -2.4405059031
C    1.6837202639  0.5083852459  0.1454041123
C    2.6686462288 -0.0944277643  1.1871994281
C    1.4932364882  2.0302607375  0.3927009229
H   -3.0432800544  0.2560521431  0.4611185447
H   -3.5087112142 -1.4421395060  0.2680329084
H   -1.5656357876 -1.8378754976 -1.2458383040
H   -2.5544637004 -0.5050371075 -1.8592124834
H   -0.9759524165  1.1499009919 -0.8576603536
H    0.6083083196 -1.3487451490 -0.0645731749
H   -2.2312606323 -1.0140356280  2.4416532902
H   -1.4233763981 -2.1946567796  1.3866184701
H   -0.7002380942  0.2726800244 -3.2209971877
H    0.4960007190 -0.8970947941 -2.6261133901
H    0.8262105494  0.8470406021 -2.5297202186
H    2.1530141874  0.3880393811 -0.8408727365
H    2.2861415909  0.0318304059  2.2040910651
H    3.6406003378  0.4070388837  1.1194887972
H    2.8204875767 -1.1635802089  0.9997998590
H    2.4658544176  2.5341406325  0.3632972349
H    1.0412639890  2.2107048178  1.3733758285
H    0.8555051448  2.4792831094 -0.3753776631
