29
Energy -459.1962633820 Ha
O    0.0000000000  0.0000000000  2.5585880000
C   -2.6807970000 -0.6751880000  0.2639800000
C   -1.9068840000 -0.7890630000 -1.0689120000
C   -0.6020980000  0.0644660000 -1.0710680000
C    0.3669090000 -0.2821830000  0.1307020000
C   -0.4332870000 -0.4043980000  1.4787480000
C   -1.8084940000 -1.0922920000  1.4704180000
C    0.0440650000 -0.0965640000 -2.4669440000
C    1.6773750000  0.5915590000  0.1787610000
C    2.7727190000  0.0000000000  1.0893180000
C    1.4542890000  2.0725160000  0.5487190000
H   -3.0350120000  0.3663170000  0.4003800000
H   -3.5991440000 -1.2927230000  0.2277890000
H   -1.6691280000 -1.8528630000 -1.2685190000
H   -2.5723820000 -0.4776570000 -1.8976460000
H   -0.9073440000  1.1252840000 -0.9659730000
H    0.7066120000 -1.3172600000 -0.0579400000
H   -2.3339320000 -0.8725690000  2.4180130000
H   -1.6416520000 -2.1842710000  1.4665770000
H   -0.6747810000  0.1023440000 -3.2842090000
H    0.4443990000 -1.1155610000 -2.6255540000
H    0.8769100000  0.6113650000 -2.6257510000
H    2.1236650000  0.5829830000 -0.8333140000
H    2.4866510000  0.0158260000  2.1577050000
H    3.7226330000  0.5601850000  1.0060260000
H    2.9998400000 -1.0503480000  0.8302700000
H    2.3933510000  2.6547650000  0.5034190000
H    1.0525370000  2.1883120000  1.5730560000
H    0.7429790000  2.5670190000 -0.1366400000
29
Energy -459.1993376591 Ha
O    0.1131210956  0.1001976364  2.5230223852
C   -2.6562828647 -0.6604671339  0.2868948371
C   -1.8895453686 -0.7784119236 -1.0513377803
C   -0.5901837185  0.0772602900 -1.0749229547
C    0.3709531119 -0.3114315614  0.0940668328
C   -0.3845519700 -0.3474102990  1.4592310081
C   -1.7623627930 -1.0725719213  1.4773840690
C    0.0862577248 -0.0658400676 -2.4647232271
C    1.6525792515  0.5639320493  0.1478505657
C    2.7157272913 -0.0447988000  1.1033152928
C    1.3721943228  2.0435161884  0.5240324543
H   -2.9950127377  0.3728717003  0.4241878982
H   -3.5580702961 -1.2827493255  0.2622570749
H   -1.6432042129 -1.8297658025 -1.2406600232
H   -2.5442350465 -0.4608762081 -1.8689255774
H   -0.8838335290  1.1278918290 -0.9501728805
H    0.6984861587 -1.3492592736 -0.0918110142
H   -2.2600132796 -0.8498343822  2.4266132421
H   -1.5886966902 -2.1578721870  1.4562346547
H   -0.6279974813  0.1444724894 -3.2646334996
H    0.4688070810 -1.0785835800 -2.6195106461
H    0.9204683703  0.6291283638 -2.5920892024
H    2.0947192995  0.5557866975 -0.8564816307
H    2.3829045032 -0.0289508866  2.1443264487
H    3.6505720462  0.5185815972  1.0459659979
H    2.9400444443 -1.0832990210  0.8405482002
H    2.2942819070  2.6294205393  0.4976521839
H    0.9555865755  2.1276820372  1.5310174582
H    0.6672858044  2.5113819557 -0.1693331676
29
Energy -459.2015027088 Ha
O    0.0366127481  0.2141386480  2.5050581560
C   -2.6602924393 -0.6774703322  0.2804945012
C   -1.8854454714 -0.7979943557 -1.0522556000
C   -0.6032586814  0.0812378070 -1.0730207500
C    0.3597026424 -0.3086009979  0.0995631064
C   -0.4057022177 -0.3244718104  1.4649763913
C   -1.7669316944 -1.0769710327  1.4786143197
C    0.0799305778 -0.0487154913 -2.4618132961
C    1.6618918642  0.5648235995  0.1518799721
C    2.7272972906 -0.0609448167  1.0957167424
C    1.3999064437  2.0475878700  0.5340155537
H   -3.0062301292  0.3568509832  0.4096317434
H   -3.5527672200 -1.3159693260  0.2537231604
H   -1.6133097764 -1.8477475711 -1.2252040027
H   -2.5385524330 -0.4934767087 -1.8801774542
H   -0.9140122095  1.1268973859 -0.9437792757
H    0.6784428237 -1.3473328582 -0.0816297572
H   -2.2742202471 -0.8599358334  2.4275073754
H   -1.5708660092 -2.1581941456  1.4509012639
H   -0.6474660875  0.1456125230 -3.2581122296
H    0.4795840594 -1.0584883752 -2.6085457713
H    0.9004528628  0.6639850793 -2.5835122934
H    2.0950136629  0.5560831429 -0.8561311724
H    2.3947001179 -0.0435545061  2.1370599158
H    3.6668163702  0.4991031724  1.0279699278
H    2.9328487980 -1.1007956760  0.8176020092
H    2.3364573259  2.6151229062  0.5011520459
H    0.9924523053  2.1269376260  1.5461523080
H    0.6969437232  2.5222840941 -0.1578378900
29
Energy -459.2026533832 Ha
O   -0.0152304386  0.2731025919  2.4941716909
C   -2.6562806395 -0.7187543689  0.2949416373
C   -1.8887825718 -0.7985756954 -1.0486971480
C   -0.6242296827  0.1106959077 -1.0604998015
C    0.3471927407 -0.3006520894  0.1036080633
C   -0.4279646519 -0.2898161317  1.4634439503
C   -1.7362969482 -1.1226351227  1.4743936397
C    0.0506406444  0.0261238809 -2.4580474227
C    1.6820358854  0.5381346014  0.1541707450
C    2.6873595690 -0.0726883736  1.1701153446
C    1.4648795497  2.0494151398  0.4409921796
H   -3.0230928277  0.3070110359  0.4477841578
H   -3.5297477687 -1.3859593183  0.2634865210
H   -1.5866283047 -1.8394343334 -1.2352855212
H   -2.5531965945 -0.4935669890 -1.8704277782
H   -0.9540054072  1.1482985543 -0.9007823174
H    0.6371013839 -1.3465567868 -0.0778542795
H   -2.2432382906 -0.9675305661  2.4376329014
H   -1.4801190079 -2.1887802664  1.3918368666
H   -0.6987192209  0.2113405428 -3.2391736278
H    0.4758459779 -0.9731356106 -2.6194402394
H    0.8483657477  0.7678290363 -2.5688734279
H    2.1467899350  0.4577290293 -0.8380563326
H    2.3060580170  0.0155552259  2.1941645031
H    3.6475707381  0.4559075949  1.1068688920
H    2.8598850508 -1.1330154408  0.9462531352
H    2.4304397170  2.5708248695  0.4034826601
H    1.0307297288  2.1965400372  1.4356665149
H    0.8026366694  2.5025940455 -0.3058765066
29
Energy -459.2026388536 Ha
O   -0.0546265803  0.3484374458  2.4702626387
C   -2.6503730757 -0.7329308846  0.3000374355
C   -1.8853070248 -0.8007812192 -1.0451315267
C   -0.6257853769  0.1168605498 -1.0518236914
C    0.3485207507 -0.3022370295  0.1041863257
C   -0.4237644675 -0.2879764155  1.4646829896
C   -1.7249300774 -1.1345966547  1.4766835687
C    0.0463878973  0.0570656402 -2.4519679412
C    1.6841796588  0.5219223568  0.1500809039
C    2.6744712588 -0.0815404949  1.1852857962
C    1.4749178021  2.0383848913  0.4126964229
H   -3.0220719598  0.2890409231  0.4577555604
H   -3.5198380797 -1.4040118573  0.2676222653
H   -1.5765561075 -1.8376593774 -1.2372539993
H   -2.5526062138 -0.4968579669 -1.8628705885
H   -0.9612930891  1.1497522010 -0.8761795688
H    0.6302510066 -1.3505544409 -0.0803214680
H   -2.2325192147 -0.9912739211  2.4396893942
H   -1.4580040346 -2.1969668904  1.3859000155
H   -0.7050346709  0.2436945930 -3.2286435370
H    0.4825638652 -0.9340125660 -2.6262445415
H    0.8352452084  0.8094009590 -2.5534203151
H    2.1550693045  0.4210078591 -0.8382133241
H    2.2838967940  0.0260545313  2.2032231549
H    3.6386200611  0.4370746416  1.1241395505
H    2.8399616894 -1.1458531242  0.9797074450
H    2.4433582801  2.5516382882  0.3774077697
H    1.0312073931  2.2027807190  1.4003469328
H    0.8240580025  2.4841382436 -0.3476386680
29
Energy -459.2024313416 Ha
O   -0.0967091667  0.4196893216  2.4535821603
C   -2.6503579826 -0.7552792618  0.3017636136
C   -1.8840315980 -0.8048845524 -1.0441664261
C   -0.6312701526  0.1223721905 -1.0440973247
C    0.3423493868 -0.2954298270  0.1098978984
C   -0.4392496779 -0.2582612108  1.4622970798
C   -1.7180553883 -1.1397559803  1.4788284322
C    0.0453849912  0.0819506953 -2.4417786368
C    1.6841557587  0.5096760974  0.1461134377
C    2.6693495301 -0.0927674397  1.1876914487
C    1.4920029136  2.0311514664  0.3941954427
H   -3.0409298780  0.2587086909  0.4614106332
H   -3.5094585415 -1.4381925676  0.2683668771
H   -1.5679560135 -1.8371826784 -1.2455298309
H   -2.5551533239 -0.5036349905 -1.8586290111
H   -0.9749803912  1.1500402625 -0.8597454994
H    0.6098279163 -1.3492906180 -0.0654832259
H   -2.2308028775 -1.0137962028  2.4407057732
H   -1.4255022755 -2.1946476515  1.3847940698
H   -0.7006890586  0.2695854097 -3.2221200002
H    0.4943674877 -0.9006424834 -2.6263192857
H    0.8265668014  0.8430422796 -2.5323307993
H    2.1537572517  0.3904922187 -0.8402563634
H    2.2862966464  0.0322709603  2.2044746621
H    3.6406088704  0.4099066099  1.1206082069
H    2.8225221940 -1.1614974486  0.9994806169
H    2.4640610232  2.5358731091  0.3650453386
H    1.0399382176  2.2106137348  1.3748398935
H    0.8539563366  2.4798908662 -0.3736401811
