4
Energy -468.1647410827 Ha
S    0.0000000000  0.0000000000  0.8696730000
O    0.8236320000  0.0000000000 -0.4149700000
H    0.3750750000 -0.5233010000 -1.0832160000
H   -1.1987070000  0.5233010000  0.6285130000
4
Energy -468.1994195491 Ha
S   -0.0199864834  0.0042101523  0.9307556725
O    0.8525141536  0.0058398828 -0.4413297776
H    0.3909811642 -0.5475480038 -1.1353813189
H   -1.2235088344  0.5374979687  0.6459554240
4
Energy -468.2136309311 Ha
S   -0.0233012124 -0.0294121439  0.9808486226
O    0.8510251161  0.0456741383 -0.4673435443
H    0.3699450404 -0.5579829525 -1.1156446927
H   -1.1976689441  0.5417209581  0.6021396145
4
Energy -468.2177250791 Ha
S   -0.0336570849 -0.0618810307  1.0002762523
O    0.8346061763  0.0873858406 -0.4841283195
H    0.3701029774 -0.5793138693 -1.0997362462
H   -1.1710520688  0.5538090593  0.5835883133
4
Energy -468.2184544686 Ha
S   -0.0458209110 -0.0840641034  0.9962783480
O    0.8127084609  0.1105018747 -0.4998328357
H    0.3966922922 -0.6010885511 -1.0935080099
H   -1.1635798421  0.5746507799  0.5970624977
4
Energy -468.2189244637 Ha
S   -0.0598583043 -0.1046403323  0.9836630939
O    0.7862684117  0.1317628178 -0.5137802138
H    0.4348925104 -0.6282717763 -1.0931986361
H   -1.1613026177  0.6011492908  0.6233157559
4
Energy -468.2190866538 Ha
S   -0.0767634030 -0.1269877155  0.9689839191
O    0.7519641871  0.1508774207 -0.5321431951
H    0.4818278849 -0.6547613978 -1.0905161655
H   -1.1570286690  0.6308716925  0.6536754415
