4
Energy -468.1651376233 Ha
S    0.0000000000  0.0000000000  0.8696730000
O    0.8236320000  0.0000000000 -0.4149700000
H    0.3750750000 -0.5233010000 -1.0832160000
H   -1.1987070000  0.5233010000  0.6285130000
4
Energy -468.2002013052 Ha
S   -0.0189575425  0.0044043148  0.9303306465
O    0.8571091357  0.0066412087 -0.4394795624
H    0.3911887765 -0.5507336981 -1.1405499529
H   -1.2293403697  0.5396881747  0.6496988688
4
Energy -468.2156729551 Ha
S   -0.0245139011 -0.0372627015  0.9823577083
O    0.8608689603  0.0551103005 -0.4714932011
H    0.3758056250 -0.5710672299 -1.1246863464
H   -1.2121606842  0.5532196309  0.6138218392
4
Energy -468.2192202022 Ha
S   -0.0371760563 -0.0751742316  1.0029539432
O    0.8430022837  0.1017728349 -0.4928077668
H    0.3805289092 -0.5966605308 -1.1081635016
H   -1.1863551366  0.5700619275  0.5980173253
4
Energy -468.2199560073 Ha
S   -0.0549179192 -0.1038764332  0.9966193154
O    0.8126396661  0.1317631058 -0.5132181549
H    0.4186014018 -0.6264207848 -1.1019875421
H   -1.1763231486  0.5985341121  0.6185863816
4
Energy -468.2202402735 Ha
S   -0.0757187071 -0.1301143483  0.9786922950
O    0.7744621469  0.1563793706 -0.5336681450
H    0.4728975374 -0.6600380273 -1.1002925931
H   -1.1716409772  0.6337730050  0.6552684432
