4
Energy -468.1647416112 Ha
S    0.0000000000  0.0000000000  0.8696730000
O    0.8236320000  0.0000000000 -0.4149700000
H    0.3750750000 -0.5233010000 -1.0832160000
H   -1.1987070000  0.5233010000  0.6285130000
4
Energy -468.1994206440 Ha
S   -0.0199891229  0.0042110987  0.9307559724
O    0.8525125878  0.0058408843 -0.4413287947
H    0.3909802723 -0.5475480202 -1.1353812067
H   -1.2235037373  0.5374960372  0.6459540290
4
Energy -468.2136291338 Ha
S   -0.0232930876 -0.0293900134  0.9808512772
O    0.8510261663  0.0456533924 -0.4673244984
H    0.3699218026 -0.5579602643 -1.1156445894
H   -1.1976548813  0.5416968853  0.6021178105
4
Energy -468.2177247664 Ha
S   -0.0336541302 -0.0618583293  1.0002781788
O    0.8346168087  0.0873668006 -0.4841133427
H    0.3700743770 -0.5792918446 -1.0997324636
H   -1.1710370555  0.5537833733  0.5835676276
4
Energy -468.2184542976 Ha
S   -0.0458166462 -0.0840422256  0.9962759724
O    0.8127222789  0.1104841533 -0.4998161635
H    0.3966608357 -0.6010673996 -1.0935021549
H   -1.1635664684  0.5746254719  0.5970423460
4
Energy -468.2189241070 Ha
S   -0.0598525011 -0.1046199200  0.9836613823
O    0.7862823577  0.1317475717 -0.5137612773
H    0.4348575887 -0.6282511094 -1.0931922744
H   -1.1612874454  0.6011234578  0.6232921695
4
Energy -468.2190870739 Ha
S   -0.0767526278 -0.1269732197  0.9689881005
O    0.7519807508  0.1508670837 -0.5321248926
H    0.4817884045 -0.6547423930 -1.0905092177
H   -1.1570165275  0.6308485289  0.6536460098
