9    
Iteration 0 Energy -115.85471892
C        1.2818000000   -0.2031000000    0.0000000000
C       -0.1545261200    0.4833189800    0.0000000000
C       -1.3939539300   -0.2446245200    0.0000000000
H        1.8941744600    0.1345736000   -0.9681650000
H        1.2130445500   -1.3957342400    0.0000000000
H        1.8941744600    0.1345736000    0.9681650000
H       -0.1880518800    1.6692790500    0.0000000000
H       -2.4284921300    0.3322790600    0.0000000000
H       -1.4174367500   -1.4287048700    0.0000000000
9    
Iteration 1 Energy -115.88704646
C        1.2232477422   -0.2041005807    0.0000000000
C       -0.1555839919    0.4720900497    0.0000000000
C       -1.3166492361   -0.2214987561    0.0000000000
H        1.8116939283    0.1047759081   -0.9062195265
H        1.1288976773   -1.3143920904    0.0000000000
H        1.8116939283    0.1047759081    0.9062195265
H       -0.1794593579    1.5887218550    0.0000000000
H       -2.3068485031    0.2820313320    0.0000000000
H       -1.3162595272   -1.3305429657    0.0000000000
9    
Iteration 2 Energy -115.88650846
C        1.2479437468   -0.1950118241    0.0000000000
C       -0.1573140635    0.4212073156    0.0000000000
C       -1.3459202805   -0.2301186647    0.0000000000
H        1.8183510497    0.1257613560   -0.8839812682
H        1.1904921933   -1.2906569815    0.0000000000
H        1.8183510497    0.1257613560    0.8839812682
H       -0.1693985439    1.5186161695    0.0000000000
H       -2.2880174114    0.3293279736    0.0000000000
H       -1.4137550802   -1.3230260404    0.0000000000
9    
Iteration 3 Energy -115.88706168
C        1.2341698913   -0.1982811240    0.0000000000
C       -0.1561456366    0.4470707591    0.0000000000
C       -1.3285230904   -0.2283474826    0.0000000000
H        1.8110859186    0.1128782599   -0.8874220532
H        1.1548424258   -1.2951008291   -0.0000000000
H        1.8110859186    0.1128782599    0.8874220532
H       -0.1689848073    1.5479788193    0.0000000000
H       -2.2864865963    0.3066784352    0.0000000000
H       -1.3703113638   -1.3238944377    0.0000000000
9    
Iteration 4 Energy -115.88723607
C        1.2281061955   -0.2043063118    0.0000000000
C       -0.1529923857    0.4611621351    0.0000000000
C       -1.3230130633   -0.2137191409    0.0000000000
H        1.8118699208    0.1023296045   -0.8955299410
H        1.1332589289   -1.3048821218    0.0000000000
H        1.8118699208    0.1023296045    0.8955299410
H       -0.1624798345    1.5673508548    0.0000000000
H       -2.3061069665    0.2851966156    0.0000000000
H       -1.3397800560   -1.3136005799    0.0000000000
9    
Iteration 5 Energy -115.88724555
C        1.2253509284   -0.2042601718    0.0000000000
C       -0.1540462505    0.4640962097    0.0000000000
C       -1.3183681250   -0.2222873939    0.0000000000
H        1.8084942978    0.1008622082   -0.8928511296
H        1.1287123169   -1.3032959440    0.0000000000
H        1.8084942978    0.1008622082    0.8928511296
H       -0.1656173537    1.5690261375    0.0000000000
H       -2.2882068074    0.2984926845    0.0000000000
H       -1.3440806443   -1.3216352784    0.0000000000
9    
Iteration 6 Energy -115.88724582
C        1.2271871286   -0.2055248820    0.0000000000
C       -0.1527633439    0.4618443969    0.0000000000
C       -1.3215711907   -0.2182151835    0.0000000000
H        1.8093965652    0.0992320428   -0.8910039520
H        1.1318097946   -1.3036287096    0.0000000000
H        1.8093965652    0.0992320428    0.8910039520
H       -0.1611395765    1.5658018759    0.0000000000
H       -2.2918457922    0.2990783509    0.0000000000
H       -1.3497374903   -1.3159592743    0.0000000000
