10
Energy -189.8066785223 Ha
O    0.0000000000  1.8346350000  0.0000000000
C    0.0000000000  0.6034350000  0.0000000000
C    0.0000000000 -0.1563340000  1.3236740000
C    0.0000000000 -0.1563340000 -1.3236740000
H    0.0000000000  0.5315090000  2.1894920000
H    0.0000000000  0.5315090000 -2.1894920000
H    0.8962160000 -0.7971050000  1.4128230000
H   -0.8962160000 -0.7971050000  1.4128230000
H    0.8962160000 -0.7971050000 -1.4128230000
H   -0.8962160000 -0.7971050000 -1.4128230000
10
Energy -189.8127622546 Ha
O   -0.0000000000  1.9211962335  0.0000000000
C   -0.0000000000  0.6399017967 -0.0000000000
C    0.0000000000 -0.1648500854  1.3289358288
C   -0.0000000000 -0.1648500854 -1.3289358288
H   -0.0000000000  0.5152293418  2.1969993318
H    0.0000000000  0.5152293418 -2.1969993318
H    0.8927221813 -0.8154641357  1.3953356134
H   -0.8927221813 -0.8154641357  1.3953356134
H    0.8927221813 -0.8154641357 -1.3953356134
H   -0.8927221813 -0.8154641357 -1.3953356134
10
Energy -189.8128682369 Ha
O   -0.0000002076  1.9162112691  0.0000097479
C    0.0000006207  0.6452296946  0.0000013509
C    0.0000066748 -0.1632809997  1.3246124324
C   -0.0000043794 -0.1632634962 -1.3246204144
H   -0.0000042635  0.5139175647  2.1951607850
H    0.0000001627  0.5139219388 -2.1951789801
H    0.8916154671 -0.8156864397  1.3791912767
H   -0.8916144324 -0.8156700402  1.3791861259
H    0.8915948509 -0.8156835781 -1.3791804270
H   -0.8915944934 -0.8156959134 -1.3791818974
10
Energy -189.8128869857 Ha
O   -0.0000017269  1.9194287725  0.0000128233
C    0.0000001090  0.6527859891 -0.0000005340
C    0.0000060974 -0.1625237455  1.3214658514
C   -0.0000031422 -0.1625020879 -1.3214779640
H    0.0000020655  0.5088170065  2.1954751566
H   -0.0000038998  0.5088225377 -2.1954976485
H    0.8914719087 -0.8162139134  1.3648474049
H   -0.8914828139 -0.8161870459  1.3648495239
H    0.8914658051 -0.8162031847 -1.3648392444
H   -0.8914544027 -0.8162243285 -1.3648353692
