10
Energy -189.8109349756 Ha
O    0.0000000000  1.8346350000  0.0000000000
C    0.0000000000  0.6034350000  0.0000000000
C    0.0000000000 -0.1563340000  1.3236740000
C    0.0000000000 -0.1563340000 -1.3236740000
H    0.0000000000  0.5315090000  2.1894920000
H    0.0000000000  0.5315090000 -2.1894920000
H    0.8962160000 -0.7971050000  1.4128230000
H   -0.8962160000 -0.7971050000  1.4128230000
H    0.8962160000 -0.7971050000 -1.4128230000
H   -0.8962160000 -0.7971050000 -1.4128230000
10
Energy -189.8150843053 Ha
O   -0.0000000000  1.9020576979  0.0000003709
C    0.0000000000  0.6405688475  0.0000004297
C    0.0000000000 -0.1668075797  1.3238288614
C   -0.0000000000 -0.1668080188 -1.3238286838
H   -0.0000000000  0.5097929874  2.1810169246
H    0.0000000000  0.5097932706 -2.1810176024
H    0.8853105203 -0.8071491543  1.3931353336
H   -0.8853105203 -0.8071491543  1.3931353336
H    0.8853109861 -0.8071494482 -1.3931354839
H   -0.8853109861 -0.8071494482 -1.3931354839
10
Energy -189.8154398891 Ha
O   -0.0000001413  1.9029738690  0.0000052082
C    0.0000003354  0.6494677268  0.0000009350
C    0.0000024535 -0.1671663946  1.3174516484
C   -0.0000011618 -0.1671567683 -1.3174550631
H   -0.0000008270  0.5098697240  2.1793790947
H   -0.0000014258  0.5098714766 -2.1793883018
H    0.8872711965 -0.8094646687  1.3747911896
H   -0.8872708210 -0.8094588192  1.3747865906
H    0.8872597868 -0.8094662985 -1.3747845220
H   -0.8872593954 -0.8094698472 -1.3747867794
10
Energy -189.8153096460 Ha
O   -0.0000006407  1.9062212583  0.0000071098
C    0.0000011546  0.6569050501  0.0000009021
C    0.0000034068 -0.1671438470  1.3135184191
C   -0.0000016908 -0.1671320590 -1.3135230554
H   -0.0000010675  0.5046014698  2.1786419094
H   -0.0000017540  0.5046023604 -2.1786536875
H    0.8876100644 -0.8095147647  1.3608208680
H   -0.8876109142 -0.8095054071  1.3608159105
H    0.8875997000 -0.8095138694 -1.3608137838
H   -0.8875982585 -0.8095201915 -1.3608145921
