10
Energy -189.8110619763 Ha
O    0.0000000000  1.8346350000  0.0000000000
C    0.0000000000  0.6034350000  0.0000000000
C    0.0000000000 -0.1563340000  1.3236740000
C    0.0000000000 -0.1563340000 -1.3236740000
H    0.0000000000  0.5315090000  2.1894920000
H    0.0000000000  0.5315090000 -2.1894920000
H    0.8962160000 -0.7971050000  1.4128230000
H   -0.8962160000 -0.7971050000  1.4128230000
H    0.8962160000 -0.7971050000 -1.4128230000
H   -0.8962160000 -0.7971050000 -1.4128230000
10
Energy -189.8151925323 Ha
O    0.0000000000  1.9015523996 -0.0000000000
C    0.0000000000  0.6403405709 -0.0000000000
C   -0.0000000000 -0.1667624476  1.3233685015
C    0.0000000000 -0.1667624476 -1.3233685015
H    0.0000000000  0.5097846989  2.1804144187
H   -0.0000000000  0.5097846989 -2.1804144187
H    0.8851256494 -0.8069843683  1.3926741544
H   -0.8851256494 -0.8069843683  1.3926741544
H    0.8851256494 -0.8069843683 -1.3926741544
H   -0.8851256494 -0.8069843683 -1.3926741544
10
Energy -189.8155455822 Ha
O   -0.0000001409  1.9024412948  0.0000056508
C    0.0000003341  0.6492831128  0.0000011623
C    0.0000024606 -0.1670998403  1.3169995994
C   -0.0000011734 -0.1670904056 -1.3170031234
H   -0.0000008224  0.5098729065  2.1788062913
H   -0.0000014218  0.5098748174 -2.1788157253
H    0.8871155397 -0.8093200024  1.3743560032
H   -0.8871151657 -0.8093141329  1.3743513929
H    0.8871042154 -0.8093220866 -1.3743494883
H   -0.8871038256 -0.8093256636 -1.3743517627
10
Energy -189.8154091272 Ha
O   -0.0000006276  1.9056511137  0.0000068638
C    0.0000011216  0.6567361784  0.0000007946
C    0.0000033936 -0.1670637590  1.3130984355
C   -0.0000016859 -0.1670519091 -1.3131030647
H   -0.0000009957  0.5046138677  2.1781544757
H   -0.0000018024  0.5046146774 -2.1781660264
H    0.8874679226 -0.8093764250  1.3604239560
H   -0.8874689005 -0.8093669229  1.3604191012
H    0.8874575490 -0.8093751701 -1.3604168807
H   -0.8874559746 -0.8093816510 -1.3604176550
