9    
Iteration 0 Energy -115.85964832
C        1.2818000000   -0.2031000000    0.0000000000
C       -0.1545261200    0.4833189800    0.0000000000
C       -1.3939539300   -0.2446245200    0.0000000000
H        1.8941744600    0.1345736000   -0.9681650000
H        1.2130445500   -1.3957342400    0.0000000000
H        1.8941744600    0.1345736000    0.9681650000
H       -0.1880518800    1.6692790500    0.0000000000
H       -2.4284921300    0.3322790600    0.0000000000
H       -1.4174367500   -1.4287048700    0.0000000000
9    
Iteration 1 Energy -115.89116752
C        1.2255364276   -0.1993000611   -0.0000000000
C       -0.1585987943    0.4585428234   -0.0000000000
C       -1.3154009569   -0.2229570481    0.0000000000
H        1.8051777310    0.1130929320   -0.9045544482
H        1.1483986982   -1.3127271680   -0.0000000000
H        1.8051777310    0.1130929320    0.9045544482
H       -0.1864776919    1.5694826634   -0.0000000000
H       -2.2958159261    0.2933643272    0.0000000000
H       -1.3272645586   -1.3307307406    0.0000000000
9    
Iteration 2 Energy -115.88751707
C        1.2286727096   -0.1894352750   -0.0000000000
C       -0.1569923255    0.4305118439   -0.0000000000
C       -1.3205987369   -0.2267956034   -0.0000000000
H        1.7949571204    0.1209084711   -0.8751969715
H        1.1639221768   -1.2722977867   -0.0000000000
H        1.7949571204    0.1209084711    0.8751969715
H       -0.1648551670    1.5154984122   -0.0000000000
H       -2.2694404319    0.2902329463   -0.0000000000
H       -1.3698898060   -1.3076708196   -0.0000000000
9    
Iteration 3 Energy -115.89008420
C        1.2240309590   -0.1952839613   -0.0000000000
C       -0.1576449246    0.4470225351   -0.0000000000
C       -1.3138385185   -0.2236102683   -0.0000000000
H        1.7960263850    0.1144156363   -0.8889297363
H        1.1512021117   -1.2914722215   -0.0000000000
H        1.7960263850    0.1144156363    0.8889297363
H       -0.1776443857    1.5430162933   -0.0000000000
H       -2.2780954834    0.2895283054   -0.0000000000
H       -1.3393298684   -1.3161712953   -0.0000000000
9    
Iteration 4 Energy -115.88945271
C        1.2179262741   -0.1948748358   -0.0000000000
C       -0.1572646275    0.4535167352   -0.0000000000
C       -1.3060753379   -0.2245335208   -0.0000000000
H        1.7907354729    0.1104877896   -0.8855403482
H        1.1381563802   -1.2872704527   -0.0000000000
H        1.7907354729    0.1104877896    0.8855403482
H       -0.1747058690    1.5468566844   -0.0000000000
H       -2.2707446974    0.2814771442    0.0000000000
H       -1.3280304082   -1.3142866737   -0.0000000000
