10
Energy -189.8109174753 Ha
O    0.0000000000  1.8346350000  0.0000000000
C    0.0000000000  0.6034350000  0.0000000000
C    0.0000000000 -0.1563340000  1.3236740000
C    0.0000000000 -0.1563340000 -1.3236740000
H    0.0000000000  0.5315090000  2.1894920000
H    0.0000000000  0.5315090000 -2.1894920000
H    0.8962160000 -0.7971050000  1.4128230000
H   -0.8962160000 -0.7971050000  1.4128230000
H    0.8962160000 -0.7971050000 -1.4128230000
H   -0.8962160000 -0.7971050000 -1.4128230000
10
Energy -189.8150832907 Ha
O   -0.0000000000  1.9021588310 -0.0000009701
C    0.0000000000  0.6405597918 -0.0000007645
C    0.0000000000 -0.1668212216  1.3238469011
C   -0.0000000000 -0.1668209487 -1.3238473959
H   -0.0000000000  0.5097863048  2.1810338182
H    0.0000000000  0.5097845387 -2.1810331585
H    0.8853138119 -0.8071629866  1.3931616062
H   -0.8853138119 -0.8071629866  1.3931616062
H    0.8853108651 -0.8071606615 -1.3931608213
H   -0.8853108651 -0.8071606615 -1.3931608213
10
Energy -189.8154395914 Ha
O   -0.0000001413  1.9029861067  0.0000060504
C    0.0000003353  0.6494348951  0.0000011848
C    0.0000024534 -0.1671689925  1.3174736472
C   -0.0000011624 -0.1671595633 -1.3174774503
H   -0.0000008255  0.5098776029  2.1793850113
H   -0.0000014259  0.5098795408 -2.1793949098
H    0.8872684787 -0.8094617984  1.3748402843
H   -0.8872681035 -0.8094559492  1.3748356832
H    0.8872575618 -0.8094641462 -1.3748336204
H   -0.8872571706 -0.8094676960 -1.3748358804
10
Energy -189.8153048811 Ha
O   -0.0000006413  1.9062098047  0.0000068190
C    0.0000011547  0.6568980960  0.0000007236
C    0.0000034049 -0.1671438697  1.3135266347
C   -0.0000016900 -0.1671320140 -1.3135313410
H   -0.0000010630  0.5046075944  2.1786412603
H   -0.0000017556  0.5046082075 -2.1786529080
H    0.8876094305 -0.8095133637  1.3608350768
H   -0.8876102830 -0.8095040093  1.3608301173
H    0.8875986801 -0.8095120625 -1.3608277858
H   -0.8875972373 -0.8095183833 -1.3608285971
