4
Energy -55.5162705785 Ha
N    0.0000000000  0.0000000000  0.2523660000
H    0.8247170000  0.4761510000 -0.0841220000
H   -0.8247170000  0.4761510000 -0.0841220000
H    0.0000000000 -0.9523010000 -0.0841220000
4
Energy -55.5235891901 Ha
N    0.0027971942 -0.0016147221  0.2881282373
H    0.8438948027  0.4928855736 -0.0956622911
H   -0.8417882913  0.4860070671 -0.0968035581
H   -0.0049037055 -0.9772769185 -0.0956623881
4
Energy -55.5262849280 Ha
N    0.0050491182 -0.0029148218  0.3232223077
H    0.8285499665  0.4882405440 -0.1070771552
H   -0.8250455565  0.4763405054 -0.1090678815
H   -0.0085535283 -0.9616652276 -0.1070772710
4
Energy -55.5273993898 Ha
N    0.0020267765 -0.0011699089  0.3541494370
H    0.8126505025  0.4724147102 -0.1180076119
H   -0.8118795887  0.4687391253 -0.1181341185
H   -0.0027976902 -0.9399829266 -0.1180077066
4
Energy -55.5272287414 Ha
N    0.0005784568 -0.0003337419  0.3479396964
H    0.8154332927  0.4716104096 -0.1162116241
H   -0.8153020208  0.4707150922 -0.1155163638
H   -0.0007097287 -0.9419907598 -0.1162117085
