4
Energy -55.5162472813 Ha
N    0.0000000000  0.0000000000  0.2523660000
H    0.8247170000  0.4761510000 -0.0841220000
H   -0.8247170000  0.4761510000 -0.0841220000
H    0.0000000000 -0.9523010000 -0.0841220000
4
Energy -55.5238728988 Ha
N    0.0032272627 -0.0018634619  0.2971190282
H    0.8576598561  0.5017053676 -0.0986007822
H   -0.8552279396  0.4937666426 -0.0999175190
H   -0.0056591792 -0.9936075483 -0.0986007270
4
Energy -55.5268041618 Ha
N    0.0060290829 -0.0034807751  0.3341776319
H    0.8404257628  0.4971008979 -0.1105929417
H   -0.8361661337  0.4827612204 -0.1129916538
H   -0.0102887119 -0.9763803432 -0.1105930363
4
Energy -55.5281491671 Ha
N    0.0042864690 -0.0024746203  0.3681871973
H    0.8219405670  0.4821906065 -0.1223642950
H   -0.8196081856  0.4732012118 -0.1234584832
H   -0.0066188504 -0.9529161981 -0.1223644192
4
Energy -55.5282200581 Ha
N    0.0010562327 -0.0006095748  0.3745104347
H    0.8196569198  0.4746650596 -0.1251323934
H   -0.8194698465  0.4731214038 -0.1242454895
H   -0.0012433060 -0.9471758886 -0.1251325518
