9
Energy -152.3154763868 Ha
O    1.5608150000  0.0000000000  0.0000000000
C    0.2268280000  0.4713430000  0.0000000000
C   -0.7793460000 -0.6488390000  0.0000000000
H    2.1473790000  0.7961900000  0.0000000000
H    0.0371350000  1.0945200000  0.8959340000
H    0.0371350000  1.0945200000 -0.8959340000
H   -0.7206590000 -1.3019650000  0.8847790000
H   -0.7206590000 -1.3019650000 -0.8847790000
H   -1.7886300000 -0.2038060000  0.0000000000
9
Energy -152.3242394595 Ha
O    1.6006226186 -0.0532539422 -0.0000000000
C    0.2284399188  0.4998462107 -0.0000000000
C   -0.8127114072 -0.6689823073 -0.0000000000
H    2.1895828048  0.8100863221  0.0000000000
H    0.0372959192  1.1470819218  0.9076945580
H    0.0372959192  1.1470819218 -0.9076945580
H   -0.7197985478 -1.3209689592  0.8974099501
H   -0.7197985478 -1.3209689592 -0.8974099501
H   -1.8409306777 -0.2399242087  0.0000000000
9
Energy -152.3251490388 Ha
O    1.5849156515 -0.0684966081 -0.0000232494
C    0.2255899521  0.5082005584  0.0001119956
C   -0.8136577765 -0.6669903220  0.0000034793
H    2.1508691435  0.7905544492 -0.0000925478
H    0.0467708578  1.1530533208  0.9030256020
H    0.0467637146  1.1528539729 -0.9029425359
H   -0.6987635785 -1.3097707396  0.8986468826
H   -0.6986556307 -1.3097058827 -0.8986724954
H   -1.8438343336 -0.2497007490 -0.0000571311
9
Energy -152.3251998265 Ha
O    1.5745716614 -0.0732330445 -0.0000496830
C    0.2195833796  0.5100570931  0.0001372213
C   -0.8167674136 -0.6652508156  0.0000180738
H    2.1492974506  0.7806892675 -0.0000975820
H    0.0484497631  1.1542993313  0.9026695974
H    0.0484212546  1.1540465503 -0.9025822195
H   -0.6870510078 -1.3017489830  0.8998686549
H   -0.6868900722 -1.3016313548 -0.8998881253
H   -1.8496170157 -0.2572300443 -0.0000759378
