9
Energy -152.3177265964 Ha
O    1.5608150000  0.0000000000  0.0000000000
C    0.2268280000  0.4713430000  0.0000000000
C   -0.7793460000 -0.6488390000  0.0000000000
H    2.1473790000  0.7961900000  0.0000000000
H    0.0371350000  1.0945200000  0.8959340000
H    0.0371350000  1.0945200000 -0.8959340000
H   -0.7206590000 -1.3019650000  0.8847790000
H   -0.7206590000 -1.3019650000 -0.8847790000
H   -1.7886300000 -0.2038060000  0.0000000000
9
Energy -152.3257054198 Ha
O    1.5774929143 -0.0450056613 -0.0000000000
C    0.2244226133  0.4967908846  0.0000000000
C   -0.8045793348 -0.6617125667 -0.0000000000
H    2.1579363845  0.7920804378 -0.0000000000
H    0.0403178908  1.1319274322  0.8924384886
H    0.0403178908  1.1319274322 -0.8924384886
H   -0.7098024231 -1.3019597188  0.8829040167
H   -0.7098024231 -1.3019597188 -0.8829040167
H   -1.8163055127 -0.2420905213 -0.0000000000
9
Energy -152.3257878788 Ha
O    1.5601847435 -0.0608184031 -0.0000253411
C    0.2194433334  0.5045928814  0.0001207331
C   -0.8064899695 -0.6592030847  0.0000056263
H    2.1298655714  0.7708735093 -0.0001013897
H    0.0469406573  1.1396500416  0.8904994121
H    0.0469355886  1.1394355157 -0.8904099347
H   -0.6860994397 -1.2912804375  0.8874968776
H   -0.6859826281 -1.2912070182 -0.8875220576
H   -1.8247998569 -0.2520450044 -0.0000639260
9
Energy -152.3258497786 Ha
O    1.5511451009 -0.0648170846 -0.0000365705
C    0.2136131302  0.5058862508  0.0001287187
C   -0.8096045122 -0.6577182511  0.0000179019
H    2.1328664035  0.7620035319 -0.0000982380
H    0.0474567578  1.1416816176  0.8913542762
H    0.0474361886  1.1414452075 -0.8912766661
H   -0.6759251026 -1.2845731503  0.8892455094
H   -0.6757766065 -1.2844554220 -0.8892669843
H   -1.8312133596 -0.2594546997 -0.0000679473
