9
Energy -152.3177802014 Ha
O    1.5608150000  0.0000000000  0.0000000000
C    0.2268280000  0.4713430000  0.0000000000
C   -0.7793460000 -0.6488390000  0.0000000000
H    2.1473790000  0.7961900000  0.0000000000
H    0.0371350000  1.0945200000  0.8959340000
H    0.0371350000  1.0945200000 -0.8959340000
H   -0.7206590000 -1.3019650000  0.8847790000
H   -0.7206590000 -1.3019650000 -0.8847790000
H   -1.7886300000 -0.2038060000  0.0000000000
9
Energy -152.3257125783 Ha
O    1.5771045482 -0.0449816928  0.0000000000
C    0.2243763599  0.4967239115 -0.0000000000
C   -0.8044211956 -0.6616107986  0.0000000000
H    2.1575316104  0.7919705201  0.0000000000
H    0.0403372971  1.1316203775  0.8921452760
H    0.0403372971  1.1316203775 -0.8921452760
H   -0.7096499825 -1.3016620053  0.8826861613
H   -0.7096499825 -1.3016620053 -0.8826861613
H   -1.8159679522 -0.2420206845  0.0000000000
9
Energy -152.3258015839 Ha
O    1.5598167773 -0.0607736995 -0.0000253175
C    0.2194014298  0.5045580679  0.0001207279
C   -0.8063612532 -0.6590997278  0.0000056681
H    2.1296035417  0.7707312791 -0.0001014162
H    0.0469369179  1.1393996154  0.8902550895
H    0.0469317941  1.1391850657 -0.8901656187
H   -0.6859292467 -1.2910533660  0.8874151912
H   -0.6858124047 -1.2909798421 -0.8874403443
H   -1.8245895561 -0.2519693927 -0.0000639799
9
Energy -152.3258648086 Ha
O    1.5508305060 -0.0647492105 -0.0000378929
C    0.2135792500  0.5058418369  0.0001275326
C   -0.8094688956 -0.6576170761  0.0000179612
H    2.1326723202  0.7618719334 -0.0000956389
H    0.0474203553  1.1414413170  0.8911469353
H    0.0473990655  1.1412051723 -0.8910704060
H   -0.6757990399 -1.2843700250  0.8891592163
H   -0.6756516919 -1.2842523290 -0.8891804880
H   -1.8309838696 -0.2593736189 -0.0000672199
