7
Energy -114.6559593327 Ha
C    0.0000000000  0.0000000000  0.0000000000
C    0.0000000000  1.3198700000  0.0000000000
C    0.0000000000 -1.3198700000  0.0000000000
H    0.9354370000 -1.8600750000  0.0000000000
H   -0.9354370000 -1.8600750000  0.0000000000
H    0.0000000000  1.8600750000  0.9354370000
H    0.0000000000  1.8600750000 -0.9354370000
7
Energy -114.6590519243 Ha
C   -0.0000000000 -0.0000000000  0.0000177589
C    0.0000000000  1.3338046138  0.0000027130
C    0.0000000000 -1.3338046138 -0.0000006305
H    0.9564611786 -1.9033539506 -0.0000184553
H   -0.9564611787 -1.9033539509 -0.0000074000
H    0.0000055277  1.9033674313  0.9564538440
H   -0.0000055276  1.9033404702 -0.9564685131
7
Energy -114.6593458691 Ha
C   -0.0000000000 -0.0000000000  0.0000155198
C    0.0000000000  1.3340571165  0.0000019175
C    0.0000000000 -1.3340571165 -0.0000011351
H    0.9475470177 -1.9081728640 -0.0000167697
H   -0.9475470177 -1.9081728642 -0.0000065676
H    0.0000051011  1.9081859258  0.9475409111
H   -0.0000051010  1.9081598024 -0.9475531242
7
Energy -114.6594439088 Ha
C   -0.0000000000  0.0000000000  0.0000109860
C    0.0000000000  1.3328808820  0.0000011854
C   -0.0000000000 -1.3328808819 -0.0000016737
H    0.9405494773 -1.9150631094 -0.0000128123
H   -0.9405494773 -1.9150631095 -0.0000043999
H    0.0000042062  1.9150726810  0.9405448349
H   -0.0000042062  1.9150535379 -0.9405541196
