7
Energy -114.6546996475 Ha
C    0.0000000000  0.0000000000  0.0000000000
C    0.0000000000  1.3198700000  0.0000000000
C    0.0000000000 -1.3198700000  0.0000000000
H    0.9354370000 -1.8600750000  0.0000000000
H   -0.9354370000 -1.8600750000  0.0000000000
H    0.0000000000  1.8600750000  0.9354370000
H    0.0000000000  1.8600750000 -0.9354370000
7
Energy -114.6569985554 Ha
C   -0.0000000000  0.0000006379 -0.0000004432
C    0.0000000416  1.3195509097 -0.0000000674
C   -0.0000000416 -1.3195509175  0.0000000161
H    0.9420395767 -1.8810597553  0.0000010285
H   -0.9420396952 -1.8810596959 -0.0000003842
H    0.0000004896  1.8810587724  0.9420389015
H   -0.0000003710  1.8810594423 -0.9420385348
7
Energy -114.6571247559 Ha
C    0.0000000000 -0.0000000708  0.0000002135
C   -0.0000000041  1.3184309517  0.0000000509
C    0.0000000041 -1.3184310611  0.0000000120
H    0.9342202890 -1.8902312729  0.0000003524
H   -0.9342202772 -1.8902312787 -0.0000006371
H    0.0000005984  1.8902315189  0.9342203792
H   -0.0000006102  1.8902312806 -0.9342205767
7
Energy -114.6569989855 Ha
C    0.0000000000  0.0000000368  0.0000005723
C    0.0000000028  1.3173280464  0.0000000665
C   -0.0000000028 -1.3173280987 -0.0000000235
H    0.9279653249 -1.8959825528 -0.0000002681
H   -0.9279653329 -1.8959825488 -0.0000005867
H    0.0000005139  1.8959830489  0.9279649160
H   -0.0000005059  1.8959820335 -0.9279653341
