7
Energy -114.6599652416 Ha
C    0.0000000000  0.0000000000  0.0000000000
C    0.0000000000  1.3198700000  0.0000000000
C    0.0000000000 -1.3198700000  0.0000000000
H    0.9354370000 -1.8600750000  0.0000000000
H   -0.9354370000 -1.8600750000  0.0000000000
H    0.0000000000  1.8600750000  0.9354370000
H    0.0000000000  1.8600750000 -0.9354370000
7
Energy -114.6593765153 Ha
C    0.0000000035 -0.0007242385  0.0004301967
C   -0.0000470589  1.3053989518  0.0000664305
C    0.0000470422 -1.3045942288 -0.0000145150
H    0.9396313879 -1.8652301231  0.0000607845
H   -0.9394967644 -1.8652976714 -0.0006884679
H    0.0005757919  1.8658942676  0.9388533178
H   -0.0007104024  1.8652412262 -0.9392100220
7
Energy -114.6602515461 Ha
C    0.0000027543 -0.0001713963 -0.0006355926
C   -0.0000113412  1.3043633744 -0.0001187889
C    0.0000118680 -1.3040519760  0.0000009198
H    0.9307646158 -1.8758412710  0.0011484810
H   -0.9307345253 -1.8758518970 -0.0002473652
H    0.0003069991  1.8754233009  0.9310533406
H   -0.0003431229  1.8762904311 -0.9305024429
7
Energy -114.6607317658 Ha
C   -0.0000246790 -0.0000010011 -0.0041581554
C    0.0000040692  1.3019016305 -0.0006361077
C   -0.0000045141 -1.3015946962  0.0001471014
H    0.9231040293 -1.8821310334  0.0050182443
H   -0.9230849771 -1.8821971501  0.0011080124
H   -0.0006496637  1.8787432220  0.9247890472
H    0.0006806811  1.8853001345 -0.9213803037
