3
Energy -75.0099131978 Ha
O    0.0000000000 -0.3693730000  0.0000000000
H    0.7839760000  0.1846870000  0.0000000000
H   -0.7839760000  0.1846870000  0.0000000000
3
Energy -75.0213928325 Ha
O   -0.0000000000 -0.4195915583  0.0000000000
H    0.8023554070  0.2097962792  0.0000000000
H   -0.8023554070  0.2097962792  0.0000000000
3
Energy -75.0229131592 Ha
O   -0.0000000000 -0.4454525922  0.0000000000
H    0.7576968956  0.2227267961  0.0000000000
H   -0.7576968956  0.2227267961  0.0000000000
3
Energy -75.0228215915 Ha
O   -0.0000000000 -0.4406466046  0.0000000000
H    0.7628617837  0.2203238023  0.0000000000
H   -0.7628617837  0.2203238023  0.0000000000
