3
Energy -75.0097790671 Ha
O    0.0000000000 -0.3693730000  0.0000000000
H    0.7839760000  0.1846870000  0.0000000000
H   -0.7839760000  0.1846870000  0.0000000000
3
Energy -75.0209055026 Ha
O    0.0000000000 -0.4273546479  0.0000000000
H    0.8172976525  0.2136778239  0.0000000000
H   -0.8172976525  0.2136778239  0.0000000000
3
Energy -75.0232701459 Ha
O    0.0000000000 -0.4544165730  0.0000000000
H    0.7730305033  0.2272087865  0.0000000000
H   -0.7730305033  0.2272087865  0.0000000000
3
Energy -75.0232877690 Ha
O    0.0000000000 -0.4556878247  0.0000000000
H    0.7686621237  0.2278444124  0.0000000000
H   -0.7686621237  0.2278444124  0.0000000000
