9
Energy -115.8596413619 Ha
C    1.2818000000 -0.2031000000  0.0000000000
C   -0.1545261200  0.4833189800  0.0000000000
C   -1.3939539300 -0.2446245200  0.0000000000
H    1.8941744600  0.1345736000 -0.9681650000
H    1.2130445500 -1.3957342400  0.0000000000
H    1.8941744600  0.1345736000  0.9681650000
H   -0.1880518800  1.6692790500  0.0000000000
H   -2.4284921300  0.3322790600  0.0000000000
H   -1.4174367500 -1.4287048700  0.0000000000
9
Energy -115.8896968267 Ha
C    1.2232663680 -0.1990283708  0.0000000000
C   -0.1557812116  0.4553267854  0.0000000000
C   -1.3136787201 -0.2288035099  0.0000000000
H    1.7886935652  0.1105244783 -0.8889665086
H    1.1558776390 -1.2915659519  0.0000000000
H    1.7886935652  0.1105244783  0.8889665086
H   -0.1869813391  1.5460626408  0.0000000000
H   -2.2669794898  0.2949770253 -0.0000000000
H   -1.3323777166 -1.3161569154 -0.0000000000
9
Energy -115.8888394978 Ha
C    1.2163240207 -0.1948395612  0.0000016624
C   -0.1569244085  0.4485442239 -0.0000014370
C   -1.3030128888 -0.2260533252 -0.0000002713
H    1.7866050318  0.1119658661 -0.8838537756
H    1.1395034176 -1.2854688296 -0.0000019891
H    1.7866073274  0.1119675185  0.8838550454
H   -0.1788596390  1.5412059643  0.0000003115
H   -2.2623503152  0.2898674854 -0.0000001253
H   -1.3271598859 -1.3153286822  0.0000005789
9
Energy -115.8890886086 Ha
C    1.2192967966 -0.1932864417  0.0000024833
C   -0.1576379608  0.4485435764 -0.0000041670
C   -1.3079743930 -0.2259354210  0.0000003301
H    1.7925431427  0.1130011217 -0.8829742321
H    1.1407804027 -1.2837932790 -0.0000037544
H    1.7925449052  0.1130030696  0.8829766723
H   -0.1738075880  1.5396498560  0.0000011799
H   -2.2684365291  0.2839100145 -0.0000004949
H   -1.3365761161 -1.3132318363  0.0000019828
9
Energy -115.8892288630 Ha
C    1.2196702645 -0.1934486483  0.0000019204
C   -0.1574980228  0.4491560141  0.0000117762
C   -1.3083292680 -0.2253816346  0.0000019031
H    1.7928470056  0.1131646619 -0.8826585899
H    1.1420583511 -1.2843258768 -0.0000002507
H    1.7928590616  0.1131604816  0.8826552644
H   -0.1713023279  1.5413684935 -0.0000039100
H   -2.2713072349  0.2820280059 -0.0000079685
H   -1.3382651692 -1.3138608372 -0.0000001450
9
Energy -115.8892103748 Ha
C    1.2192773588 -0.1936941337 -0.0000025405
C   -0.1575729463  0.4494685519 -0.0000142880
C   -1.3079886510 -0.2249359541 -0.0000072407
H    1.7924204353  0.1133307227 -0.8831929170
H    1.1422832177 -1.2847492255 -0.0000005883
H    1.7924052268  0.1133303199  0.8831990914
H   -0.1703691860  1.5413459363  0.0000028327
H   -2.2715382116  0.2808333806  0.0000117406
H   -1.3381845839 -1.3130689381  0.0000039098
9
Energy -115.8891978662 Ha
C    1.2192231896 -0.1937598180  0.0000013924
C   -0.1575072962  0.4495773359  0.0000169851
C   -1.3078690587 -0.2248781275  0.0000147051
H    1.7920504692  0.1132075987 -0.8830241138
H    1.1423311426 -1.2846451425  0.0000051360
H    1.7920687038  0.1132099795  0.8830134123
H   -0.1702527744  1.5414239008 -0.0000017025
H   -2.2714529414  0.2807285954 -0.0000159225
H   -1.3378587744 -1.3130036623 -0.0000098921
9
Energy -115.8891339412 Ha
C    1.2191528351 -0.1937939672 -0.0000013991
C   -0.1575800882  0.4495676535 -0.0000132612
C   -1.3077408896 -0.2247962270 -0.0000162891
H    1.7919233414  0.1131614693 -0.8829946087
H    1.1422647408 -1.2846412746 -0.0000054928
H    1.7919061054  0.1131563113  0.8830050720
H   -0.1702056922  1.5414720970 -0.0000003027
H   -2.2714114939  0.2806637287  0.0000152161
H   -1.3375761987 -1.3129291309  0.0000110655
9
Energy -115.8891989968 Ha
C    1.2191735433 -0.1937521515 -0.0000011011
C   -0.1575318460  0.4495754449 -0.0000090551
C   -1.3078289563 -0.2248543302 -0.0000079353
H    1.7920357424  0.1131984409 -0.8830678859
H    1.1422126014 -1.2846525512 -0.0000024755
H    1.7920251427  0.1131967503  0.8830736460
H   -0.1701914479  1.5414558741  0.0000007296
H   -2.2714778545  0.2806999957  0.0000088791
H   -1.3376842651 -1.3130068130  0.0000051981
9
Energy -115.8891820227 Ha
C    1.2191871286 -0.1937519197 -0.0000011019
C   -0.1574962931  0.4495806341 -0.0000089783
C   -1.3078649103 -0.2248768777 -0.0000077680
H    1.7920271252  0.1131588556 -0.8830112957
H    1.1422385676 -1.2845170304 -0.0000024296
H    1.7920167147  0.1131572504  0.8830169982
H   -0.1701387853  1.5414543045  0.0000007453
H   -2.2715183360  0.2806912078  0.0000087500
H   -1.3377185515 -1.3130357648  0.0000050799
