12
Energy -228.3155649535 Ha
C    0.0000000000  1.3941320000  0.0000000000
C    0.0000000000 -1.3941320000  0.0000000000
C    1.2073540000  0.6970660000  0.0000000000
C   -1.2073540000  0.6970660000  0.0000000000
C    1.2073540000 -0.6970660000  0.0000000000
C   -1.2073540000 -0.6970660000  0.0000000000
H    0.0000000000  2.4743750000  0.0000000000
H    0.0000000000 -2.4743750000  0.0000000000
H    2.1428720000  1.2371880000  0.0000000000
H   -2.1428720000  1.2371880000  0.0000000000
H    2.1428720000 -1.2371880000  0.0000000000
H   -2.1428720000 -1.2371880000  0.0000000000
12
Energy -228.3209633133 Ha
C    0.0000309158  1.4052942001  0.0000000000
C   -0.0000176222 -1.4051619159 -0.0000000000
C    1.2170654340  0.7025591031 -0.0000000000
C   -1.2170890202  0.7025593826  0.0000000000
C    1.2169671252 -0.7025666590  0.0000000000
C   -1.2169856095 -0.7026169461 -0.0000000000
H    0.0000458820  2.5017701376  0.0000000000
H   -0.0000043019 -2.5015815697  0.0000000000
H    2.1666072664  1.2507074270 -0.0000000000
H   -2.1666238001  1.2507186200 -0.0000000000
H    2.1664691495 -1.2508112978  0.0000000000
H   -2.1664654191 -1.2508704818 -0.0000000000
12
Energy -228.3206164539 Ha
C   -0.0000623528  1.4054521649  0.0000000105
C    0.0000100653 -1.4054065740  0.0000000102
C    1.2172047752  0.7026775689  0.0000000001
C   -1.2171775624  0.7026727947 -0.0000000095
C    1.2171529602 -0.7027368210 -0.0000000091
C   -1.2171152085 -0.7026417570 -0.0000000000
H   -0.0000960337  2.4978733491  0.0000000146
H   -0.0000172636 -2.4977794440  0.0000000144
H    2.1632517154  1.2488810204 -0.0000000012
H   -2.1631774596  1.2488176496 -0.0000000146
H    2.1631763530 -1.2489681584 -0.0000000145
H   -2.1631499886 -1.2488417932 -0.0000000008
