12
Energy -228.2833909494 Ha
C    0.0000000000  1.3941320000  0.0000000000
C    0.0000000000 -1.3941320000  0.0000000000
C    1.2073540000  0.6970660000  0.0000000000
C   -1.2073540000  0.6970660000  0.0000000000
C    1.2073540000 -0.6970660000  0.0000000000
C   -1.2073540000 -0.6970660000  0.0000000000
H    0.0000000000  2.4743750000  0.0000000000
H    0.0000000000 -2.4743750000  0.0000000000
H    2.1428720000  1.2371880000  0.0000000000
H   -2.1428720000  1.2371880000  0.0000000000
H    2.1428720000 -1.2371880000  0.0000000000
H   -2.1428720000 -1.2371880000  0.0000000000
12
Energy -228.2892231240 Ha
C   -0.0000000000  1.4167753365 -0.0000000000
C    0.0000000000 -1.4167753365 -0.0000000000
C    1.2267747222  0.7081879414 -0.0000000000
C   -1.2267747222  0.7081879413  0.0000000000
C    1.2267747222 -0.7081879413 -0.0000000000
C   -1.2267747222 -0.7081879414 -0.0000000000
H   -0.0000000000  2.5242300527 -0.0000000000
H    0.0000000000 -2.5242300527 -0.0000000000
H    2.1857491337  1.2616761153  0.0000000000
H   -2.1857491337  1.2616761153  0.0000000000
H    2.1857491337 -1.2616761153  0.0000000000
H   -2.1857491337 -1.2616761153  0.0000000000
12
Energy -228.2896677182 Ha
C   -0.0000000001  1.4165611160 -0.0000000009
C   -0.0000000002 -1.4165611277  0.0000000007
C    1.2264136816  0.7079773427 -0.0000000016
C   -1.2264136812  0.7079773423  0.0000000020
C    1.2264136891 -0.7079773407 -0.0000000000
C   -1.2264136888 -0.7079773403 -0.0000000018
H   -0.0000000004  2.5176447855 -0.0000000004
H   -0.0000000004 -2.5176447972  0.0000000010
H    2.1799472024  1.2582314708 -0.0000000000
H   -2.1799472021  1.2582314702  0.0000000022
H    2.1799472143 -1.2582314610  0.0000000010
H   -2.1799472142 -1.2582314605 -0.0000000022
