12
Energy -228.3163715566 Ha
C    0.0000000000  1.3941320000  0.0000000000
C    0.0000000000 -1.3941320000  0.0000000000
C    1.2073540000  0.6970660000  0.0000000000
C   -1.2073540000  0.6970660000  0.0000000000
C    1.2073540000 -0.6970660000  0.0000000000
C   -1.2073540000 -0.6970660000  0.0000000000
H    0.0000000000  2.4743750000  0.0000000000
H    0.0000000000 -2.4743750000  0.0000000000
H    2.1428720000  1.2371880000  0.0000000000
H   -2.1428720000  1.2371880000  0.0000000000
H    2.1428720000 -1.2371880000  0.0000000000
H   -2.1428720000 -1.2371880000  0.0000000000
12
Energy -228.3218544734 Ha
C    0.0000000000  1.4043441601  0.0000000000
C   -0.0000000000 -1.4043441601 -0.0000000000
C    1.2162315218  0.7021415191 -0.0000000000
C   -1.2162315218  0.7021415191 -0.0000000000
C    1.2162315218 -0.7021415191  0.0000000000
C   -1.2162315218 -0.7021415191 -0.0000000000
H    0.0000000000  2.5003760680  0.0000000000
H   -0.0000000000 -2.5003760680  0.0000000000
H    2.1654313820  1.2501581851 -0.0000000000
H   -2.1654313820  1.2501581851  0.0000000000
H    2.1654313820 -1.2501581851  0.0000000000
H   -2.1654313820 -1.2501581851 -0.0000000000
12
Energy -228.3213481189 Ha
C   -0.0000000000  1.4042968863 -0.0000000000
C   -0.0000000000 -1.4042968867  0.0000000000
C    1.2161750938  0.7021101716  0.0000000000
C   -1.2161750938  0.7021101716 -0.0000000000
C    1.2161750941 -0.7021101715 -0.0000000000
C   -1.2161750941 -0.7021101715  0.0000000000
H   -0.0000000000  2.4963559067 -0.0000000000
H   -0.0000000000 -2.4963559071  0.0000000000
H    2.1619272502  1.2481398463  0.0000000001
H   -2.1619272502  1.2481398463 -0.0000000001
H    2.1619272506 -1.2481398460 -0.0000000001
H   -2.1619272506 -1.2481398460  0.0000000001
