26
Energy -564.1869536769 Ha
N    0.0000000000  0.0000000000  4.8577040000
N    0.0000000000  0.0000000000 -4.8577040000
C   -1.1662480000  0.2989230000  2.8414470000
C    1.1662480000 -0.2989230000  2.8414470000
C   -1.1662480000 -0.2989230000 -2.8414470000
C    1.1662480000  0.2989230000 -2.8414470000
C   -1.1679290000  0.2981870000  1.4494850000
C    1.1679290000 -0.2981870000  1.4494850000
C   -1.1679290000 -0.2981870000 -1.4494850000
C    1.1679290000  0.2981870000 -1.4494850000
C    0.0000000000  0.0000000000  0.7035340000
C    0.0000000000  0.0000000000 -0.7035340000
C    0.0000000000  0.0000000000  3.5345440000
C    0.0000000000  0.0000000000 -3.5345440000
H   -2.0797870000  0.5409630000  3.3670670000
H    2.0797870000 -0.5409630000  3.3670670000
H   -2.0797870000 -0.5409630000 -3.3670670000
H    2.0797870000  0.5409630000 -3.3670670000
H   -2.0932870000  0.5682570000  0.9609680000
H    2.0932870000 -0.5682570000  0.9609680000
H   -2.0932870000 -0.5682570000 -0.9609680000
H    2.0932870000  0.5682570000 -0.9609680000
H    0.8881570000 -0.2277120000  5.3154960000
H   -0.8881570000  0.2277120000  5.3154960000
H    0.8881570000  0.2277120000 -5.3154960000
H   -0.8881570000 -0.2277120000 -5.3154960000
26
Energy -564.2289946687 Ha
N   -0.0005367348 -0.0000903242  5.0406605585
N   -0.0005404284 -0.0001169119 -5.0404090620
C   -1.1685460113  0.3071715198  2.8903808631
C    1.1686981444 -0.3073430638  2.8908293108
C   -1.1683346146 -0.3071666947 -2.8902313323
C    1.1686232917  0.3073178682 -2.8907398724
C   -1.1598706633  0.3046764200  1.4922796749
C    1.1604171852 -0.3046645201  1.4922054505
C   -1.1600238049 -0.3045717192 -1.4924591922
C    1.1607846332  0.3048533984 -1.4926317891
C    0.0003488432  0.0000391862  0.7480001923
C    0.0003157376  0.0001050781 -0.7478958208
C   -0.0001607742 -0.0000971588  3.6175677988
C   -0.0002205031 -0.0000216931 -3.6172490998
H   -2.0920355779  0.5563272330  3.4187963488
H    2.0917538169 -0.5564390872  3.4194652472
H   -2.0915962649 -0.5563314224 -3.4186926836
H    2.0916341260  0.5564010870 -3.4196037848
H   -2.0887370683  0.5745488692  0.9801455465
H    2.0896155023 -0.5745048762  0.9800805002
H   -2.0892188628 -0.5744376926 -0.9803408217
H    2.0902508789  0.5747807596 -0.9806541199
H    0.8615694740 -0.2263808641  5.5299557466
H   -0.8628793178  0.2262453015  5.5295185689
H    0.8615481761  0.2261936493 -5.5297132170
H   -0.8628591833 -0.2264943418 -5.5292650115
26
Energy -564.2321013032 Ha
N   -0.0002021914 -0.0000692721  5.0311757658
N   -0.0001990137 -0.0000318429 -5.0310570694
C   -1.1655656814  0.3252010699  2.8892899758
C    1.1655998547 -0.3252040737  2.8894527911
C   -1.1658165400 -0.3253030502 -2.8892268139
C    1.1659833978  0.3253394225 -2.8894931588
C   -1.1572974160  0.3229893260  1.4903751157
C    1.1574131298 -0.3229429202  1.4903518709
C   -1.1577985571 -0.3230288174 -1.4904110153
C    1.1581622229  0.3230514030 -1.4905358186
C    0.0001030940 -0.0000024966  0.7535556916
C    0.0000622726  0.0000047186 -0.7530020992
C   -0.0000748325 -0.0000393876  3.6143984269
C   -0.0001030414 -0.0000328134 -3.6143571734
H   -2.0820298422  0.5834325833  3.4227094058
H    2.0820980476 -0.5834434241  3.4230022301
H   -2.0821948810 -0.5835518224 -3.4227800741
H    2.0822956518  0.5836117680 -3.4232595557
H   -2.0796776464  0.5890173393  0.9705059163
H    2.0798110328 -0.5889558379  0.9706236793
H   -2.0802307661 -0.5890348803 -0.9706743188
H    2.0806324289  0.5891602067 -0.9708996063
H    0.8540359740 -0.2377464263  5.5381963724
H   -0.8545152021  0.2376487482  5.5380463672
H    0.8540442906  0.2376918646 -5.5380692885
H   -0.8545357861 -0.2377613850 -5.5379176169
26
Energy -564.2314386291 Ha
N    0.0005614759 -0.0001925358  5.0114335315
N    0.0007558051 -0.0002213853 -5.0104056404
C   -1.1548076830  0.3687334394  2.8835272969
C    1.1545480228 -0.3686518821  2.8827514663
C   -1.1538034046 -0.3683971353 -2.8837522257
C    1.1535121905  0.3683541847 -2.8832845288
C   -1.1493866298  0.3632925887  1.4845566612
C    1.1486210590 -0.3629394059  1.4841547453
C   -1.1480873663 -0.3627124584 -1.4845655622
C    1.1473688858  0.3630598348 -1.4847039178
C   -0.0002717530  0.0001963277  0.7571195723
C   -0.0004002750  0.0002154106 -0.7580626078
C    0.0001109471 -0.0000149961  3.6037356241
C    0.0002683718 -0.0000418671 -3.6034980102
H   -2.0544608960  0.6639264320  3.4264358355
H    2.0544532669 -0.6641069375  3.4251031837
H   -2.0535071019 -0.6637382065 -3.4266479505
H    2.0532866535  0.6634606896 -3.4256982747
H   -2.0531935168  0.6678153669  0.9531865291
H    2.0520106720 -0.6673210250  0.9527339204
H   -2.0517961193 -0.6670895047 -0.9529250318
H    2.0508260447  0.6672924266 -0.9530567328
H    0.8314143417 -0.2644891226  5.5377636649
H   -0.8299144713  0.2641491952  5.5383440807
H    0.8316877604  0.2640605061 -5.5368549461
H   -0.8297962802 -0.2646399399 -5.5373906831
26
Energy -564.2308478864 Ha
N   -0.0000141083 -0.0000262202  5.0126449739
N    0.0000036143  0.0000176100 -5.0126019970
C   -1.1538444422  0.3715279022  2.8829136980
C    1.1538258447 -0.3715655781  2.8827904101
C   -1.1537045204 -0.3715297681 -2.8829228844
C    1.1536874484  0.3715130441 -2.8827918198
C   -1.1470870393  0.3691800920  1.4840570251
C    1.1470381184 -0.3692204939  1.4839807151
C   -1.1469418788 -0.3691963724 -1.4840507589
C    1.1469535396  0.3691416721 -1.4840202296
C    0.0000370106 -0.0000336284  0.7558620222
C   -0.0000082119 -0.0000252297 -0.7559898492
C   -0.0000689652 -0.0000069837  3.6033864913
C   -0.0000244455 -0.0000037215 -3.6033212054
H   -2.0538883037  0.6656866361  3.4257648981
H    2.0539068457 -0.6657303421  3.4256138496
H   -2.0537702131 -0.6656687399 -3.4257173317
H    2.0537875582  0.6657069526 -3.4255909667
H   -2.0518968124  0.6720929840  0.9526853627
H    2.0518939423 -0.6720933441  0.9526187506
H   -2.0517713693 -0.6721010285 -0.9527397364
H    2.0517415241  0.6720746282 -0.9526071771
H    0.8334291124 -0.2671315922  5.5384028259
H   -0.8333332439  0.2673475371  5.5384587546
H    0.8332848101  0.2672496793 -5.5383808351
H   -0.8332358147 -0.2672056948 -5.5384449859
26
Energy -564.2322137206 Ha
N   -0.0001757139 -0.0000749459  5.0152544438
N   -0.0000833390  0.0000339030 -5.0151034474
C   -1.1522378031  0.3777320155  2.8830630204
C    1.1524168670 -0.3778049391  2.8832736034
C   -1.1532066763 -0.3780728960 -2.8832261391
C    1.1531215025  0.3780722347 -2.8831504957
C   -1.1455880177  0.3747574100  1.4842810153
C    1.1458700563 -0.3748527650  1.4843161449
C   -1.1467388535 -0.3751002531 -1.4843569869
C    1.1467030329  0.3750854757 -1.4843389910
C    0.0001040517 -0.0000269880  0.7553689080
C    0.0000607574  0.0000095333 -0.7547612308
C   -0.0000517183 -0.0000222437  3.6038914832
C   -0.0000936881 -0.0000115541 -3.6041554292
H   -2.0505096062  0.6762043217  3.4260731522
H    2.0506675173 -0.6762995527  3.4265096577
H   -2.0514700553 -0.6765540882 -3.4264036674
H    2.0513477689  0.6766148687 -3.4263812309
H   -2.0486969217  0.6815080415  0.9527447074
H    2.0490782809 -0.6816009501  0.9527855196
H   -2.0500089633 -0.6819221376 -0.9529293441
H    2.0499405014  0.6819322064 -0.9529070750
H    0.8322883110 -0.2716893149  5.5395376537
H   -0.8325844844  0.2719877343  5.5393936158
H    0.8324213690  0.2719062824 -5.5393692053
H   -0.8325741757 -0.2718113986 -5.5394096824
