26
Energy -564.1852040354 Ha
N    0.0000000000  0.0000000000  4.8577040000
N    0.0000000000  0.0000000000 -4.8577040000
C   -1.1662480000  0.2989230000  2.8414470000
C    1.1662480000 -0.2989230000  2.8414470000
C   -1.1662480000 -0.2989230000 -2.8414470000
C    1.1662480000  0.2989230000 -2.8414470000
C   -1.1679290000  0.2981870000  1.4494850000
C    1.1679290000 -0.2981870000  1.4494850000
C   -1.1679290000 -0.2981870000 -1.4494850000
C    1.1679290000  0.2981870000 -1.4494850000
C    0.0000000000  0.0000000000  0.7035340000
C    0.0000000000  0.0000000000 -0.7035340000
C    0.0000000000  0.0000000000  3.5345440000
C    0.0000000000  0.0000000000 -3.5345440000
H   -2.0797870000  0.5409630000  3.3670670000
H    2.0797870000 -0.5409630000  3.3670670000
H   -2.0797870000 -0.5409630000 -3.3670670000
H    2.0797870000  0.5409630000 -3.3670670000
H   -2.0932870000  0.5682570000  0.9609680000
H    2.0932870000 -0.5682570000  0.9609680000
H   -2.0932870000 -0.5682570000 -0.9609680000
H    2.0932870000  0.5682570000 -0.9609680000
H    0.8881570000 -0.2277120000  5.3154960000
H   -0.8881570000  0.2277120000  5.3154960000
H    0.8881570000  0.2277120000 -5.3154960000
H   -0.8881570000 -0.2277120000 -5.3154960000
26
Energy -564.2307315417 Ha
N    0.0000000000  0.0000000000  5.0409927749
N   -0.0000000000  0.0000000000 -5.0409927749
C   -1.1698340894  0.3067696491  2.8907986340
C    1.1698340894 -0.3067696491  2.8907986340
C   -1.1698340894 -0.3067696491 -2.8907986340
C    1.1698340894  0.3067696491 -2.8907986340
C   -1.1613157613  0.3040336213  1.4926212652
C    1.1613157613 -0.3040336213  1.4926212652
C   -1.1613157613 -0.3040336213 -1.4926212652
C    1.1613157613  0.3040336213 -1.4926212652
C    0.0000000000 -0.0000000000  0.7479982301
C    0.0000000000 -0.0000000000 -0.7479982301
C   -0.0000000000  0.0000000000  3.6178327749
C   -0.0000000000  0.0000000000 -3.6178327749
H   -2.0931982128  0.5555461327  3.4191994393
H    2.0931982128 -0.5555461327  3.4191994393
H   -2.0931982128 -0.5555461327 -3.4191994393
H    2.0931982128  0.5555461327 -3.4191994393
H   -2.0901041245  0.5742943707  0.9808701246
H    2.0901041245 -0.5742943707  0.9808701246
H   -2.0901041245 -0.5742943707 -0.9808701246
H    2.0901041245  0.5742943707 -0.9808701246
H    0.8625760325 -0.2258610283  5.5290942971
H   -0.8625760325  0.2258610283  5.5290942971
H    0.8625760325  0.2258610283 -5.5290942971
H   -0.8625760325 -0.2258610283 -5.5290942971
26
Energy -564.2317233121 Ha
N   -0.0000170789  0.0000129954  5.0291760434
N   -0.0000108419  0.0000256673 -5.0291687317
C   -1.1653522252  0.3246788396  2.8883596031
C    1.1653702414 -0.3246852374  2.8883828829
C   -1.1653606626 -0.3246910005 -2.8883731527
C    1.1653543344  0.3246703148 -2.8883733600
C   -1.1574121711  0.3224479726  1.4905634734
C    1.1574461544 -0.3224530487  1.4905674368
C   -1.1574290686 -0.3224813370 -1.4905632991
C    1.1574355467  0.3224294359 -1.4905716273
C    0.0000104980 -0.0000092260  0.7534300026
C    0.0000067414 -0.0000201496 -0.7534244742
C   -0.0000071213 -0.0000132960  3.6128027752
C   -0.0000043277 -0.0000003673 -3.6127954634
H   -2.0815258392  0.5822760116  3.4218047489
H    2.0815403917 -0.5822604133  3.4218445995
H   -2.0815298049 -0.5822781020 -3.4218308412
H    2.0815191971  0.5822707346 -3.4218319669
H   -2.0798847444  0.5876266864  0.9712200594
H    2.0799179726 -0.5876440817  0.9712289717
H   -2.0799099872 -0.5876359627 -0.9712224101
H    2.0799104180  0.5876188150 -0.9712377403
H    0.8546164808 -0.2374111851  5.5355862031
H   -0.8546577618  0.2374559776  5.5355653666
H    0.8546234226  0.2374681634 -5.5355691155
H   -0.8546497643 -0.2373982071 -5.5355699841
26
Energy -564.2313136480 Ha
N    0.0000391984 -0.0000099461  5.0118327013
N    0.0000248299 -0.0000182358 -5.0118469215
C   -1.1548534743  0.3669830805  2.8837755820
C    1.1548212100 -0.3669679374  2.8837261268
C   -1.1548384815 -0.3669828411 -2.8837570838
C    1.1548481203  0.3669923864 -2.8837405824
C   -1.1495510742  0.3614855562  1.4861651503
C    1.1494732435 -0.3614900312  1.4861541172
C   -1.1495222467 -0.3614481349 -1.4861639038
C    1.1495024356  0.3614936589 -1.4861446683
C   -0.0000265848  0.0000059116  0.7577260906
C   -0.0000171038  0.0000231125 -0.7577358383
C    0.0000098384  0.0000163387  3.6041986450
C    0.0000113216 -0.0000033242 -3.6042110855
H   -2.0548752214  0.6606475382  3.4261377715
H    2.0548615166 -0.6606413512  3.4260519814
H   -2.0548671973 -0.6606623864 -3.4260984519
H    2.0548956797  0.6606332468 -3.4260714861
H   -2.0541242858  0.6638859276  0.9556088019
H    2.0540510362 -0.6638566004  0.9555858670
H   -2.0540879640 -0.6638600565 -0.9556011651
H    2.0540696035  0.6638784262 -0.9555684894
H    0.8316385927 -0.2633262522  5.5372915169
H   -0.8315438086  0.2632721751  5.5373345442
H    0.8316204340  0.2632822168 -5.5373192677
H   -0.8315596183 -0.2633324782 -5.5373299522
26
Energy -564.2318518418 Ha
N   -0.0000101819 -0.0000090404  5.0126456867
N   -0.0000045704 -0.0000013488 -5.0126425182
C   -1.1537003744  0.3720876974  2.8828625838
C    1.1537103471 -0.3720794997  2.8828716719
C   -1.1537095676 -0.3720845135 -2.8828659929
C    1.1537031787  0.3720752873 -2.8828701895
C   -1.1473563645  0.3698701750  1.4850622047
C    1.1473784623 -0.3698358273  1.4850672993
C   -1.1473674044 -0.3698639701 -1.4850588108
C    1.1473696253  0.3698564084 -1.4850707222
C    0.0000095378  0.0000134640  0.7563101511
C    0.0000059803  0.0000000535 -0.7563082980
C   -0.0000017497 -0.0000025616  3.6032790760
C   -0.0000023277 -0.0000043331 -3.6032761155
H   -2.0531798394  0.6664511573  3.4259053837
H    2.0531829807 -0.6664524010  3.4259204311
H   -2.0531877562 -0.6664453967 -3.4259123160
H    2.0531766399  0.6664424793 -3.4259210664
H   -2.0518360688  0.6726093056  0.9538414787
H    2.0518562920 -0.6725838289  0.9538492160
H   -2.0518464653 -0.6726033356 -0.9538376945
H    2.0518501048  0.6726069850 -0.9538588130
H    0.8330995889 -0.2675350651  5.5385360566
H   -0.8331315506  0.2674956602  5.5385287112
H    0.8331129013  0.2675079769 -5.5385294652
H   -0.8331214181 -0.2675155280 -5.5385279485
