10
Energy -189.8066785223 Ha
O    0.0000000000  1.8346350000  0.0000000000
C    0.0000000000  0.6034350000  0.0000000000
C    0.0000000000 -0.1563340000  1.3236740000
C    0.0000000000 -0.1563340000 -1.3236740000
H    0.0000000000  0.5315090000  2.1894920000
H    0.0000000000  0.5315090000 -2.1894920000
H    0.8962160000 -0.7971050000  1.4128230000
H   -0.8962160000 -0.7971050000  1.4128230000
H    0.8962160000 -0.7971050000 -1.4128230000
H   -0.8962160000 -0.7971050000 -1.4128230000
10
Energy -189.8114710082 Ha
O   -0.0000000016  1.9379927145  0.0000029562
C   -0.0000000032  0.6512244635  0.0000074849
C    0.0000052363 -0.1715144790  1.3658971120
C   -0.0000052363 -0.1715187119 -1.3658974117
H   -0.0000034944  0.5253694861  2.2358558260
H    0.0000034996  0.5253661726 -2.2358633060
H    0.9032130626 -0.8242306446  1.4518592622
H   -0.9032042681 -0.8242308505  1.4518462122
H    0.9032031105 -0.8242291792 -1.4518475383
H   -0.9032119054 -0.8242289715 -1.4518605976
10
Energy -189.8130929790 Ha
O   -0.0000000575  1.9287752823 -0.0000027702
C   -0.0000001139  0.6546118027  0.0000049946
C    0.0000027250 -0.1710212632  1.3453054661
C   -0.0000030882 -0.1710320988 -1.3452978511
H   -0.0000006266  0.5205735442  2.2135992151
H    0.0000014668  0.5205718915 -2.2135848665
H    0.8984875007 -0.8206160602  1.4141968363
H   -0.8984794932 -0.8206218268  1.4141816927
H    0.8984838979 -0.8206232034 -1.4141940212
H   -0.8984922111 -0.8206180682 -1.4142086958
10
Energy -189.8133679138 Ha
O    0.0000004730  1.9317873420 -0.0000027815
C    0.0000006729  0.6646746644  0.0000024326
C    0.0000035159 -0.1700581631  1.3275619971
C   -0.0000029922 -0.1700580142 -1.3275554996
H   -0.0000019823  0.5119956500  2.2020134860
H   -0.0000002618  0.5120001510 -2.2020062313
H    0.8982104228 -0.8200828925  1.3762468361
H   -0.8982045190 -0.8200812469  1.3762324859
H    0.8981982619 -0.8200881256 -1.3762412691
H   -0.8982035912 -0.8200893651 -1.3762514563
