8
Energy -78.4520494474 Ha
C    0.0000000000  0.0000000000  0.7698410000
C    0.0000000000  0.0000000000 -0.7698410000
H    0.8894650000  0.5135330000  1.1348490000
H    0.8894650000 -0.5135330000 -1.1348490000
H   -0.8894650000  0.5135330000  1.1348490000
H   -0.8894650000 -0.5135330000 -1.1348490000
H    0.0000000000 -1.0270650000  1.1348490000
H    0.0000000000  1.0270650000 -1.1348490000
8
Energy -78.4540182675 Ha
C   -0.0000000000  0.0000051470  0.7767940088
C   -0.0000000000 -0.0000051470 -0.7767940088
H    0.8911885650  0.5145313951  1.1586264867
H    0.8911885650 -0.5145313951 -1.1586264867
H   -0.8911885650  0.5145313951  1.1586264867
H   -0.8911885650 -0.5145313951 -1.1586264867
H   -0.0000000000 -1.0290659326  1.1586272289
H    0.0000000000  1.0290659326 -1.1586272289
8
Energy -78.4538293810 Ha
C   -0.0000011858  0.0000166236  0.7741150684
C    0.0000075892 -0.0000021442 -0.7741162500
H    0.8886639972  0.5130630600  1.1604672257
H    0.8886573249 -0.5130821874 -1.1604593092
H   -0.8886668878  0.5130661981  1.1604618648
H   -0.8886532639 -0.5130696282 -1.1604504167
H    0.0000012723 -1.0261422287  1.1604510499
H   -0.0000088460  1.0261503067 -1.1604692328
8
Energy -78.4537703268 Ha
C    0.0000059354  0.0000120246  0.7726572723
C   -0.0000019602 -0.0000032277 -0.7726579624
H    0.8879255947  0.5126359118  1.1611020498
H    0.8879321461 -0.5126547646 -1.1610989993
H   -0.8879367077  0.5126468755  1.1611005568
H   -0.8879211864 -0.5126395817 -1.1610906812
H    0.0000038926 -1.0252897850  1.1610901585
H   -0.0000077146  1.0252925473 -1.1611023945
