8
Energy -78.4520231798 Ha
C    0.0000000000  0.0000000000  0.7698410000
C    0.0000000000  0.0000000000 -0.7698410000
H    0.8894650000  0.5135330000  1.1348490000
H    0.8894650000 -0.5135330000 -1.1348490000
H   -0.8894650000  0.5135330000  1.1348490000
H   -0.8894650000 -0.5135330000 -1.1348490000
H    0.0000000000 -1.0270650000  1.1348490000
H    0.0000000000  1.0270650000 -1.1348490000
8
Energy -78.4540113020 Ha
C    0.0000000000  0.0000005014  0.7768716310
C    0.0000000000 -0.0000004613 -0.7768713760
H    0.8913112998  0.5145992417  1.1587754792
H    0.8913119117 -0.5145996103 -1.1587754927
H   -0.8913112998  0.5145992417  1.1587754792
H   -0.8913119117 -0.5145996103 -1.1587754927
H   -0.0000000000 -1.0291983492  1.1587759688
H   -0.0000000000  1.0291990462 -1.1587761970
8
Energy -78.4538233839 Ha
C   -0.0000011767  0.0000080398  0.7741845637
C    0.0000077134  0.0000065992 -0.7741857494
H    0.8887731419  0.5131242796  1.1605686842
H    0.8887662990 -0.5131435565 -1.1605606701
H   -0.8887760696  0.5131274269  1.1605631837
H   -0.8887621837 -0.5131308039 -1.1605515881
H    0.0000012619 -1.0262585487  1.1605518697
H   -0.0000089863  1.0262665637 -1.1605702939
8
Energy -78.4537616122 Ha
C    0.0000002417  0.0000040336  0.7727155086
C    0.0000037916  0.0000048591 -0.7727161765
H    0.8880102662  0.5126880450  1.1612113111
H    0.8880066845 -0.5126976933 -1.1612037527
H   -0.8880111906  0.5126896365  1.1612052966
H   -0.8880059602 -0.5126917971 -1.1611998473
H    0.0000009136 -1.0253807812  1.1611988030
H   -0.0000047467  1.0253836973 -1.1612111428
