8
Energy -78.4506682860 Ha
C    0.0000000000  0.0000000000  0.7698410000
C    0.0000000000  0.0000000000 -0.7698410000
H    0.8894650000  0.5135330000  1.1348490000
H    0.8894650000 -0.5135330000 -1.1348490000
H   -0.8894650000  0.5135330000  1.1348490000
H   -0.8894650000 -0.5135330000 -1.1348490000
H    0.0000000000 -1.0270650000  1.1348490000
H    0.0000000000  1.0270650000 -1.1348490000
8
Energy -78.4534655599 Ha
C   -0.0000000000  0.0000403882  0.7858950232
C    0.0000000000 -0.0000403882 -0.7858950232
H    0.9059035243  0.5231029995  1.1737083819
H    0.9059035243 -0.5231029995 -1.1737083819
H   -0.9059035243  0.5231029995  1.1737083819
H   -0.9059035243 -0.5231029995 -1.1737083819
H   -0.0000000000 -1.0461377661  1.1736038581
H    0.0000000000  1.0461377661 -1.1736038581
8
Energy -78.4533839038 Ha
C   -0.0000014737  0.0000518557  0.7830904934
C    0.0000093763 -0.0000339762 -0.7830920022
H    0.9012329268  0.5204039714  1.1724999756
H    0.9012246871 -0.5204276270 -1.1724901609
H   -0.9012365119  0.5204078663  1.1724932955
H   -0.9012196652 -0.5204121200 -1.1724791064
H    0.0000015788 -1.0407291095  1.1723470237
H   -0.0000109181  1.0407391393 -1.1723695187
8
Energy -78.4537718655 Ha
C   -0.0000076283  0.0000264391  0.7816884558
C    0.0000150895 -0.0000097219 -0.7816897757
H    0.9000435712  0.5196612836  1.1733497880
H    0.9000047452 -0.5196704959 -1.1732946739
H   -0.9000145342  0.5196538625  1.1732977118
H   -0.9000332284 -0.5196685470 -1.1733289185
H    0.0000080032 -1.0392482355  1.1732114812
H   -0.0000160181  1.0392554150 -1.1732340687
