10
Energy -189.8110623406 Ha
O    0.0000000000  1.8346350000  0.0000000000
C    0.0000000000  0.6034350000  0.0000000000
C    0.0000000000 -0.1563340000  1.3236740000
C    0.0000000000 -0.1563340000 -1.3236740000
H    0.0000000000  0.5315090000  2.1894920000
H    0.0000000000  0.5315090000 -2.1894920000
H    0.8962160000 -0.7971050000  1.4128230000
H   -0.8962160000 -0.7971050000  1.4128230000
H    0.8962160000 -0.7971050000 -1.4128230000
H   -0.8962160000 -0.7971050000 -1.4128230000
10
Energy -189.8151925221 Ha
O    0.0000000000  1.9015511567  0.0000000000
C    0.0000000000  0.6403409924  0.0000000000
C    0.0000000000 -0.1667623849  1.3233687498
C   -0.0000000000 -0.1667623849 -1.3233687498
H   -0.0000000000  0.5097848931  2.1804145134
H    0.0000000000  0.5097848931 -2.1804145134
H    0.8851256512 -0.8069842914  1.3926744452
H   -0.8851256512 -0.8069842914  1.3926744452
H    0.8851256512 -0.8069842914 -1.3926744452
H   -0.8851256512 -0.8069842914 -1.3926744452
10
Energy -189.8155537201 Ha
O   -0.0000001409  1.9024412120  0.0000056508
C    0.0000003341  0.6492835501  0.0000011623
C    0.0000024606 -0.1670998825  1.3169994702
C   -0.0000011734 -0.1670904477 -1.3170029941
H   -0.0000008224  0.5098729077  2.1788062904
H   -0.0000014219  0.5098748187 -2.1788157245
H    0.8871156147 -0.8093200706  1.3743555781
H   -0.8871152408 -0.8093142011  1.3743509677
H    0.8871042903 -0.8093221549 -1.3743490632
H   -0.8871039004 -0.8093257319 -1.3743513376
10
Energy -189.8154046774 Ha
O   -0.0000006326  1.9056023326  0.0000068733
C    0.0000011159  0.6567255981  0.0000007991
C    0.0000033985 -0.1670546697  1.3130654432
C   -0.0000016899 -0.1670428201 -1.3130700710
H   -0.0000009873  0.5046097033  2.1781257766
H   -0.0000017987  0.5046105037 -2.1781373318
H    0.8874666299 -0.8093640549  1.3603719551
H   -0.8874676153 -0.8093545301  1.3603671066
H    0.8874562596 -0.8093627827 -1.3603648825
H   -0.8874546800 -0.8093692802 -1.3603656686
