4
Energy -76.0044419192 Ha
C    0.0000000000  0.0000000000  0.6000000000
C    0.0000000000  0.0000000000 -0.6000000000
H    0.0000000000  0.0000000000  1.6000010000
H    0.0000000000  0.0000000000 -1.6000010000
4
Energy -76.0182736865 Ha
C    0.0000000000 -0.0000000000  0.5969030853
C   -0.0000000000 -0.0000000000 -0.5969030850
H    0.0000000000  0.0000000000  1.6944644659
H   -0.0000000000  0.0000000000 -1.6944644664
4
Energy -76.0185251457 Ha
C   -0.0000000000 -0.0000000000  0.5981118346
C    0.0000000000 -0.0000000000 -0.5981118348
H   -0.0000000000  0.0000000000  1.6784534561
H    0.0000000000  0.0000000000 -1.6784534558
4
Energy -76.0183993366 Ha
C   -0.0000000000 -0.0000000000  0.5979704851
C    0.0000000000 -0.0000000000 -0.5979704856
H   -0.0000000001  0.0000000000  1.6740360195
H    0.0000000001  0.0000000000 -1.6740360187
