4
Energy -76.0110226141 Ha
C    0.0000000000  0.0000000000  0.6000000000
C    0.0000000000  0.0000000000 -0.6000000000
H    0.0000000000  0.0000000000  1.6000010000
H    0.0000000000  0.0000000000 -1.6000010000
4
Energy -76.0258246045 Ha
C   -0.0000000000  0.0000000000  0.6066310558
C    0.0000000000 -0.0000000000 -0.6066310558
H    0.0000000000  0.0000000000  1.7066320559
H   -0.0000000000  0.0000000000 -1.7066320559
4
Energy -76.0260857028 Ha
C    0.0000000000  0.0000000000  0.6074154162
C   -0.0000000000 -0.0000000000 -0.6074154162
H   -0.0000000000  0.0000000000  1.6979784859
H    0.0000000000  0.0000000000 -1.6979784859
4
Energy -76.0260663407 Ha
C    0.0000000000 -0.0000000000  0.6073143519
C   -0.0000000000 -0.0000000000 -0.6073143519
H   -0.0000000000  0.0000000000  1.6953009925
H    0.0000000000  0.0000000000 -1.6953009925
