9
Energy -115.8545321552 Ha
C    1.2818000000 -0.2031000000  0.0000000000
C   -0.1545261200  0.4833189800  0.0000000000
C   -1.3939539300 -0.2446245200  0.0000000000
H    1.8941744600  0.1345736000 -0.9681650000
H    1.2130445500 -1.3957342400  0.0000000000
H    1.8941744600  0.1345736000  0.9681650000
H   -0.1880518800  1.6692790500  0.0000000000
H   -2.4284921300  0.3322790600  0.0000000000
H   -1.4174367500 -1.4287048700  0.0000000000
9
Energy -115.8867831189 Ha
C    1.2283888093 -0.2011112187  0.0000000000
C   -0.1545610691  0.4589944228  0.0000000000
C   -1.3229549035 -0.2321814096 -0.0000000000
H    1.8002544153  0.1107182408 -0.8945368565
H    1.1564099255 -1.2933545984 -0.0000000000
H    1.8002544153  0.1107182408  0.8945368565
H   -0.1846594884  1.5589662423 -0.0000000000
H   -2.2823822517  0.2925169911 -0.0000000000
H   -1.3400171928 -1.3234062510  0.0000000000
9
Energy -115.8872206085 Ha
C    1.2270121658 -0.1976657013  0.0000024519
C   -0.1561438744  0.4581350930  0.0000054038
C   -1.3179341016 -0.2292353387  0.0000001276
H    1.8046886195  0.1142513107 -0.8919750352
H    1.1452440551 -1.3013696038 -0.0000011108
H    1.8046980740  0.1142512092  0.8919738511
H   -0.1806484221  1.5621272023 -0.0000014465
H   -2.2894777272  0.2926324634 -0.0000041540
H   -1.3367061291 -1.3312659749 -0.0000000878
9
Energy -115.8872598567 Ha
C    1.2288721076 -0.1974152472  0.0000010715
C   -0.1572251132  0.4578697503 -0.0000151530
C   -1.3209422111 -0.2299184369  0.0000002362
H    1.8091211991  0.1134506942 -0.8929904398
H    1.1437215375 -1.2969979493 -0.0000102897
H    1.8091051515  0.1134432229  0.8930028510
H   -0.1779303735  1.5631262403 -0.0000041311
H   -2.2924227259  0.2869594690  0.0000082007
H   -1.3415669120 -1.3286570832  0.0000076542
9
Energy -115.8872454218 Ha
C    1.2288428124 -0.1965876900  0.0000027813
C   -0.1567833394  0.4588255842  0.0000098934
C   -1.3206943990 -0.2296151256  0.0000119807
H    1.8088259589  0.1131290446 -0.8916042186
H    1.1418654911 -1.2957330048 -0.0000167177
H    1.8088282412  0.1131019697  0.8916141592
H   -0.1751729439  1.5626352445 -0.0000171805
H   -2.2934128482  0.2840468729 -0.0000138625
H   -1.3415663131 -1.3279422356  0.0000131645
9
Energy -115.8846727940 Ha
C    1.2283592174 -0.1966830394 -0.0000018757
C   -0.1568532492  0.4591907286 -0.0000183152
C   -1.3201051385 -0.2293647887 -0.0000081707
H    1.8085849989  0.1129337400 -0.8919950315
H    1.1410083564 -1.2958642367 -0.0000135353
H    1.8085597409  0.1129167799  0.8920156477
H   -0.1746007852  1.5635037190 -0.0000095673
H   -2.2935693834  0.2830658188  0.0000167497
H   -1.3406510973 -1.3278380613  0.0000140982
9
Energy -115.8872158043 Ha
C    1.2279980510 -0.1967943714 -0.0000021035
C   -0.1571171105  0.4590613736 -0.0000183545
C   -1.3195164757 -0.2291547583 -0.0000081329
H    1.8082927547  0.1128894518 -0.8921604476
H    1.1406854979 -1.2960257842 -0.0000136522
H    1.8082677411  0.1128728561  0.8921814531
H   -0.1749254396  1.5635109276 -0.0000095756
H   -2.2930089834  0.2830829474  0.0000168037
H   -1.3399433756 -1.3275819827  0.0000140094
9
Energy -115.8872337064 Ha
C    1.2281147390 -0.1968177572 -0.0000003536
C   -0.1570112167  0.4594046208  0.0000102288
C   -1.3196874159 -0.2291001110  0.0000173862
H    1.8082843007  0.1127993887 -0.8920647665
H    1.1409142337 -1.2960797735 -0.0000075767
H    1.8082871355  0.1127841933  0.8920667899
H   -0.1747520809  1.5635990939 -0.0000097440
H   -2.2933861659  0.2827714750 -0.0000156082
H   -1.3400308695 -1.3275004700  0.0000036440
9
Energy -115.8872378862 Ha
C    1.2282217743 -0.1968476106 -0.0000066022
C   -0.1568617609  0.4596108820 -0.0000545467
C   -1.3199170631 -0.2291119279 -0.0000575027
H    1.8083642934  0.1127247538 -0.8919244456
H    1.1411415138 -1.2960222615 -0.0000038464
H    1.8083059590  0.1127324379  0.8919540815
H   -0.1745206073  1.5637927935  0.0000087919
H   -2.2937982638  0.2826106252  0.0000663681
H   -1.3402031854 -1.3276290325  0.0000177020
