7
Energy -94.1449364483 Ha
N    0.8422880000  0.0000000000  0.0000000000
C   -0.5862290000 -0.0162650000  0.0000000000
H    1.3834420000 -0.8626650000  0.0000000000
H   -0.9613370000  1.0221790000  0.0000000000
H    1.3642450000  0.8726750000  0.0000000000
H   -1.0212040000 -0.5079620000  0.8979880000
H   -1.0212040000 -0.5079620000 -0.8979880000
7
Energy -94.1455211537 Ha
N    0.8565919888  0.0007931680 -0.0000000000
C   -0.5980812553 -0.0138356254 -0.0000000000
H    1.3930070556 -0.8634095118  0.0000000000
H   -0.9692018300  1.0205678506  0.0000000000
H    1.3767675646  0.8737868202 -0.0000000000
H   -1.0295412619 -0.5089513507  0.8884038980
H   -1.0295412619 -0.5089513507 -0.8884038980
