7
Energy -94.1444646107 Ha
N    0.8422880000  0.0000000000  0.0000000000
C   -0.5862290000 -0.0162650000  0.0000000000
H    1.3834420000 -0.8626650000  0.0000000000
H   -0.9613370000  1.0221790000  0.0000000000
H    1.3642450000  0.8726750000  0.0000000000
H   -1.0212040000 -0.5079620000  0.8979880000
H   -1.0212040000 -0.5079620000 -0.8979880000
7
Energy -94.1460893043 Ha
N    0.8664485097  0.0011953998  0.0000000000
C   -0.6030664155 -0.0149656156  0.0000000000
H    1.4142204331 -0.8787846878 -0.0000000000
H   -0.9804186101  1.0376755160 -0.0000000000
H    1.3963956068  0.8908304374 -0.0000000000
H   -1.0467892620 -0.5179755249  0.9044001093
H   -1.0467892620 -0.5179755249 -0.9044001093
7
Energy -94.1462399694 Ha
N    0.8628619940  0.0012421596  0.0000000000
C   -0.6016763406 -0.0137475321  0.0000000000
H    1.4048608781 -0.8750564823  0.0000000000
H   -0.9738692042  1.0376157664  0.0000000000
H    1.3874575537  0.8867413851 -0.0000000000
H   -1.0398169406 -0.5183976484  0.9019012512
H   -1.0398169406 -0.5183976484 -0.9019012512
