7
Energy -94.1449175289 Ha
N    0.8422880000  0.0000000000  0.0000000000
C   -0.5862290000 -0.0162650000  0.0000000000
H    1.3834420000 -0.8626650000  0.0000000000
H   -0.9613370000  1.0221790000  0.0000000000
H    1.3642450000  0.8726750000  0.0000000000
H   -1.0212040000 -0.5079620000  0.8979880000
H   -1.0212040000 -0.5079620000 -0.8979880000
7
Energy -94.1455203908 Ha
N    0.8566677039  0.0008026909 -0.0000000000
C   -0.5981130121 -0.0138244503 -0.0000000000
H    1.3931325861 -0.8635017389  0.0000000000
H   -0.9692765815  1.0206490757  0.0000000000
H    1.3769069607  0.8738919152 -0.0000000000
H   -1.0296583285 -0.5090087463  0.8885292243
H   -1.0296583285 -0.5090087463 -0.8885292243
